\ Boolean forbidden-tuple encoding
Minimize
 obj: 0
Subject To
 c0_load_top__force_h0_2: pair_v1_0 + pair_v1_1 + pair_d0_0p + pair_d0_0m + pair_d0_1p + pair_d0_1m >= 1
 c1_load_top__force_h0_2: pair_v1_0 + pair_v1_1 + pair_d0_0p + pair_d0_0m + pair_d0_1p - pair_d0_1m >= 0
 c2_load_top__force_h0_2: pair_v1_0 + pair_v1_1 + pair_d0_0p + pair_d0_0m - pair_d0_1p + pair_d0_1m >= 0
 c3_load_top__force_h0_2: pair_v1_0 + pair_v1_1 + pair_d0_0p - pair_d0_0m + pair_d0_1p + pair_d0_1m >= 0
 c4_load_top__force_h0_2: pair_v1_0 + pair_v1_1 + pair_d0_0p - pair_d0_0m + pair_d0_1p - pair_d0_1m >= -1
 c5_load_top__force_h0_2: pair_v1_0 + pair_v1_1 + pair_d0_0p - pair_d0_0m - pair_d0_1p + pair_d0_1m >= -1
 c6_load_top__force_h0_2: pair_v1_0 + pair_v1_1 - pair_d0_0p + pair_d0_0m + pair_d0_1p + pair_d0_1m >= 0
 c7_load_top__force_h0_2: pair_v1_0 + pair_v1_1 - pair_d0_0p + pair_d0_0m + pair_d0_1p - pair_d0_1m >= -1
 c8_load_top__force_h0_2: pair_v1_0 + pair_v1_1 - pair_d0_0p + pair_d0_0m - pair_d0_1p + pair_d0_1m >= -1
 c9_load_top__force_h0_2: pair_v1_0 + pair_v1_1 - pair_d0_0p + pair_d0_0m - pair_d0_1p - pair_d0_1m >= -2
 c10_load_top__force_h0_2: pair_v1_0 + pair_v1_1 - pair_d0_0p - pair_d0_0m + pair_d0_1p + pair_d0_1m >= -1
 c11_load_top__force_h0_2: pair_v1_0 + pair_v1_1 - pair_d0_0p - pair_d0_0m + pair_d0_1p - pair_d0_1m >= -2
 c12_load_top__force_h0_2: pair_v1_0 + pair_v1_1 - pair_d0_0p - pair_d0_0m - pair_d0_1p + pair_d0_1m >= -2
 c13_load_top__force_h0_2: pair_v1_0 + pair_v1_1 - pair_d0_0p - pair_d0_0m - pair_d0_1p - pair_d0_1m >= -3
 c14_load_top__force_h0_2: pair_v1_0 - pair_v1_1 + pair_d0_0p + pair_d0_0m + pair_d0_1p + pair_d0_1m >= 0
 c15_load_top__force_h0_2: pair_v1_0 - pair_v1_1 + pair_d0_0p + pair_d0_0m + pair_d0_1p - pair_d0_1m >= -1
 c16_load_top__force_h0_2: pair_v1_0 - pair_v1_1 + pair_d0_0p + pair_d0_0m - pair_d0_1p + pair_d0_1m >= -1
 c17_load_top__force_h0_2: pair_v1_0 - pair_v1_1 + pair_d0_0p + pair_d0_0m - pair_d0_1p - pair_d0_1m >= -2
 c18_load_top__force_h0_2: pair_v1_0 - pair_v1_1 + pair_d0_0p - pair_d0_0m + pair_d0_1p + pair_d0_1m >= -1
 c19_load_top__force_h0_2: pair_v1_0 - pair_v1_1 + pair_d0_0p - pair_d0_0m + pair_d0_1p - pair_d0_1m >= -2
 c20_load_top__force_h0_2: pair_v1_0 - pair_v1_1 + pair_d0_0p - pair_d0_0m - pair_d0_1p + pair_d0_1m >= -2
 c21_load_top__force_h0_2: pair_v1_0 - pair_v1_1 + pair_d0_0p - pair_d0_0m - pair_d0_1p - pair_d0_1m >= -3
 c22_load_top__force_h0_2: pair_v1_0 - pair_v1_1 - pair_d0_0p + pair_d0_0m + pair_d0_1p + pair_d0_1m >= -1
 c23_load_top__force_h0_2: pair_v1_0 - pair_v1_1 - pair_d0_0p + pair_d0_0m + pair_d0_1p - pair_d0_1m >= -2
 c24_load_top__force_h0_2: pair_v1_0 - pair_v1_1 - pair_d0_0p + pair_d0_0m - pair_d0_1p + pair_d0_1m >= -2
 c25_load_top__force_h0_2: pair_v1_0 - pair_v1_1 - pair_d0_0p + pair_d0_0m - pair_d0_1p - pair_d0_1m >= -3
 c26_load_top__force_h0_2: pair_v1_0 - pair_v1_1 - pair_d0_0p - pair_d0_0m + pair_d0_1p + pair_d0_1m >= -2
 c27_load_top__force_h0_2: pair_v1_0 - pair_v1_1 - pair_d0_0p - pair_d0_0m + pair_d0_1p - pair_d0_1m >= -3
 c28_load_top__force_h0_2: pair_v1_0 - pair_v1_1 - pair_d0_0p - pair_d0_0m - pair_d0_1p + pair_d0_1m >= -3
 c29_load_top__force_h0_2: pair_v1_0 - pair_v1_1 - pair_d0_0p - pair_d0_0m - pair_d0_1p - pair_d0_1m >= -4
 c30_load_top__force_h0_2: - pair_v1_0 + pair_v1_1 + pair_d0_0p + pair_d0_0m + pair_d0_1p + pair_d0_1m >= 0
 c31_load_top__force_h0_2: - pair_v1_0 + pair_v1_1 + pair_d0_0p + pair_d0_0m + pair_d0_1p - pair_d0_1m >= -1
 c32_load_top__force_h0_2: - pair_v1_0 + pair_v1_1 + pair_d0_0p + pair_d0_0m - pair_d0_1p + pair_d0_1m >= -1
 c33_load_top__force_h0_2: - pair_v1_0 + pair_v1_1 + pair_d0_0p + pair_d0_0m - pair_d0_1p - pair_d0_1m >= -2
 c34_load_top__force_h0_2: - pair_v1_0 + pair_v1_1 + pair_d0_0p - pair_d0_0m + pair_d0_1p + pair_d0_1m >= -1
 c35_load_top__force_h0_2: - pair_v1_0 + pair_v1_1 + pair_d0_0p - pair_d0_0m + pair_d0_1p - pair_d0_1m >= -2
 c36_load_top__force_h0_2: - pair_v1_0 + pair_v1_1 + pair_d0_0p - pair_d0_0m - pair_d0_1p + pair_d0_1m >= -2
 c37_load_top__force_h0_2: - pair_v1_0 + pair_v1_1 - pair_d0_0p + pair_d0_0m + pair_d0_1p + pair_d0_1m >= -1
 c38_load_top__force_h0_2: - pair_v1_0 + pair_v1_1 - pair_d0_0p + pair_d0_0m + pair_d0_1p - pair_d0_1m >= -2
 c39_load_top__force_h0_2: - pair_v1_0 + pair_v1_1 - pair_d0_0p + pair_d0_0m - pair_d0_1p + pair_d0_1m >= -2
 c40_load_top__force_h0_2: - pair_v1_0 + pair_v1_1 - pair_d0_0p + pair_d0_0m - pair_d0_1p - pair_d0_1m >= -3
 c41_load_top__force_h0_2: - pair_v1_0 + pair_v1_1 - pair_d0_0p - pair_d0_0m + pair_d0_1p + pair_d0_1m >= -2
 c42_load_top__force_h0_2: - pair_v1_0 + pair_v1_1 - pair_d0_0p - pair_d0_0m + pair_d0_1p - pair_d0_1m >= -3
 c43_load_top__force_h0_2: - pair_v1_0 + pair_v1_1 - pair_d0_0p - pair_d0_0m - pair_d0_1p + pair_d0_1m >= -3
 c44_load_top__force_h0_2: - pair_v1_0 + pair_v1_1 - pair_d0_0p - pair_d0_0m - pair_d0_1p - pair_d0_1m >= -4
 c45_load_top__force_h0_2: - pair_v1_0 - pair_v1_1 + pair_d0_0p + pair_d0_0m + pair_d0_1p + pair_d0_1m >= -1
 c46_load_top__force_h0_2: - pair_v1_0 - pair_v1_1 + pair_d0_0p + pair_d0_0m + pair_d0_1p - pair_d0_1m >= -2
 c47_load_top__force_h0_2: - pair_v1_0 - pair_v1_1 + pair_d0_0p + pair_d0_0m - pair_d0_1p + pair_d0_1m >= -2
 c48_load_top__force_h0_2: - pair_v1_0 - pair_v1_1 + pair_d0_0p + pair_d0_0m - pair_d0_1p - pair_d0_1m >= -3
 c49_load_top__force_h0_2: - pair_v1_0 - pair_v1_1 + pair_d0_0p - pair_d0_0m + pair_d0_1p + pair_d0_1m >= -2
 c50_load_top__force_h0_2: - pair_v1_0 - pair_v1_1 + pair_d0_0p - pair_d0_0m + pair_d0_1p - pair_d0_1m >= -3
 c51_load_top__force_h0_2: - pair_v1_0 - pair_v1_1 + pair_d0_0p - pair_d0_0m - pair_d0_1p + pair_d0_1m >= -3
 c52_load_top__force_h0_2: - pair_v1_0 - pair_v1_1 + pair_d0_0p - pair_d0_0m - pair_d0_1p - pair_d0_1m >= -4
 c53_load_top__force_h0_2: - pair_v1_0 - pair_v1_1 - pair_d0_0p + pair_d0_0m + pair_d0_1p + pair_d0_1m >= -2
 c54_load_top__force_h0_2: - pair_v1_0 - pair_v1_1 - pair_d0_0p + pair_d0_0m + pair_d0_1p - pair_d0_1m >= -3
 c55_load_top__force_h0_2: - pair_v1_0 - pair_v1_1 - pair_d0_0p + pair_d0_0m - pair_d0_1p + pair_d0_1m >= -3
 c56_load_top__force_h0_2: - pair_v1_0 - pair_v1_1 - pair_d0_0p + pair_d0_0m - pair_d0_1p - pair_d0_1m >= -4
 c57_load_top__force_h0_2: - pair_v1_0 - pair_v1_1 - pair_d0_0p - pair_d0_0m + pair_d0_1p + pair_d0_1m >= -3
 c58_load_top__force_h0_2: - pair_v1_0 - pair_v1_1 - pair_d0_0p - pair_d0_0m + pair_d0_1p - pair_d0_1m >= -4
 c59_load_top__force_h0_2: - pair_v1_0 - pair_v1_1 - pair_d0_0p - pair_d0_0m - pair_d0_1p + pair_d0_1m >= -4
 c60_load_top__force_h0_2: - pair_v1_0 - pair_v1_1 - pair_d0_0p - pair_d0_0m - pair_d0_1p - pair_d0_1m >= -5
 c61_load_top__force_v1_0: - pair_v1_0 + pair_v1_1 + pair_d0_0p - pair_d0_0m + pair_d0_1p + pair_d0_1m >= -1
 c62_load_top__force_v1_0: - pair_v1_0 + pair_v1_1 + pair_d0_0p - pair_d0_0m - pair_d0_1p + pair_d0_1m >= -2
 c63_load_top__force_v1_0: - pair_v1_0 + pair_v1_1 + pair_d0_0p - pair_d0_0m - pair_d0_1p - pair_d0_1m >= -3
 c64_load_top__force_v1_0: - pair_v1_0 + pair_v1_1 - pair_d0_0p - pair_d0_0m + pair_d0_1p + pair_d0_1m >= -2
 c65_load_top__force_v1_0: - pair_v1_0 + pair_v1_1 - pair_d0_0p - pair_d0_0m + pair_d0_1p - pair_d0_1m >= -3
 c66_load_top__force_v1_0: - pair_v1_0 + pair_v1_1 - pair_d0_0p - pair_d0_0m - pair_d0_1p + pair_d0_1m >= -3
 c67_load_top__force_v1_0: - pair_v1_0 + pair_v1_1 - pair_d0_0p - pair_d0_0m - pair_d0_1p - pair_d0_1m >= -4
 c68_load_top__force_v1_0: - pair_v1_0 - pair_v1_1 + pair_d0_0p - pair_d0_0m + pair_d0_1p + pair_d0_1m >= -2
 c69_load_top__force_v1_0: - pair_v1_0 - pair_v1_1 + pair_d0_0p - pair_d0_0m - pair_d0_1p + pair_d0_1m >= -3
 c70_load_top__force_v1_0: - pair_v1_0 - pair_v1_1 - pair_d0_0p - pair_d0_0m + pair_d0_1p + pair_d0_1m >= -3
 c71_load_top__force_v1_0: - pair_v1_0 - pair_v1_1 - pair_d0_0p - pair_d0_0m + pair_d0_1p - pair_d0_1m >= -4
 c72_load_top__force_v1_0: - pair_v1_0 - pair_v1_1 - pair_d0_0p - pair_d0_0m - pair_d0_1p + pair_d0_1m >= -4
 c73_load_top__force_v1_0: - pair_v1_0 - pair_v1_1 - pair_d0_0p - pair_d0_0m - pair_d0_1p - pair_d0_1m >= -5
 c74_load_top__force_v1_1: pair_v1_0 - pair_v1_1 + pair_d0_0p + pair_d0_0m + pair_d0_1p - pair_d0_1m >= -1
 c75_load_top__force_v1_1: pair_v1_0 - pair_v1_1 + pair_d0_0p + pair_d0_0m - pair_d0_1p + pair_d0_1m >= -1
 c76_load_top__force_v1_1: pair_v1_0 - pair_v1_1 + pair_d0_0p + pair_d0_0m - pair_d0_1p - pair_d0_1m >= -2
 c77_load_top__force_v1_1: pair_v1_0 - pair_v1_1 + pair_d0_0p - pair_d0_0m + pair_d0_1p - pair_d0_1m >= -2
 c78_load_top__force_v1_1: pair_v1_0 - pair_v1_1 + pair_d0_0p - pair_d0_0m - pair_d0_1p + pair_d0_1m >= -2
 c79_load_top__force_v1_1: pair_v1_0 - pair_v1_1 + pair_d0_0p - pair_d0_0m - pair_d0_1p - pair_d0_1m >= -3
 c80_load_top__force_v1_1: pair_v1_0 - pair_v1_1 - pair_d0_0p + pair_d0_0m - pair_d0_1p + pair_d0_1m >= -2
 c81_load_top__force_v1_1: pair_v1_0 - pair_v1_1 - pair_d0_0p + pair_d0_0m - pair_d0_1p - pair_d0_1m >= -3
 c82_load_top__force_v1_1: pair_v1_0 - pair_v1_1 - pair_d0_0p - pair_d0_0m - pair_d0_1p + pair_d0_1m >= -3
 c83_load_top__force_v1_1: pair_v1_0 - pair_v1_1 - pair_d0_0p - pair_d0_0m - pair_d0_1p - pair_d0_1m >= -4
 c84_load_top__force_v1_1: - pair_v1_0 - pair_v1_1 + pair_d0_0p + pair_d0_0m + pair_d0_1p - pair_d0_1m >= -2
 c85_load_top__force_v1_1: - pair_v1_0 - pair_v1_1 + pair_d0_0p + pair_d0_0m - pair_d0_1p + pair_d0_1m >= -2
 c86_load_top__force_v1_1: - pair_v1_0 - pair_v1_1 + pair_d0_0p + pair_d0_0m - pair_d0_1p - pair_d0_1m >= -3
 c87_load_top__force_v1_1: - pair_v1_0 - pair_v1_1 + pair_d0_0p - pair_d0_0m + pair_d0_1p - pair_d0_1m >= -3
 c88_load_top__force_v1_1: - pair_v1_0 - pair_v1_1 + pair_d0_0p - pair_d0_0m - pair_d0_1p + pair_d0_1m >= -3
 c89_load_top__force_v1_1: - pair_v1_0 - pair_v1_1 + pair_d0_0p - pair_d0_0m - pair_d0_1p - pair_d0_1m >= -4
 c90_load_top__force_v1_1: - pair_v1_0 - pair_v1_1 - pair_d0_0p + pair_d0_0m - pair_d0_1p + pair_d0_1m >= -3
 c91_load_top__force_v1_1: - pair_v1_0 - pair_v1_1 - pair_d0_0p + pair_d0_0m - pair_d0_1p - pair_d0_1m >= -4
 c92_load_top__force_v1_1: - pair_v1_0 - pair_v1_1 - pair_d0_0p - pair_d0_0m - pair_d0_1p + pair_d0_1m >= -4
 c93_load_top__force_v1_1: - pair_v1_0 - pair_v1_1 - pair_d0_0p - pair_d0_0m - pair_d0_1p - pair_d0_1m >= -5
 c94_load_top__force_d0_0m: - pair_v1_0 + pair_v1_1 + pair_d0_0p - pair_d0_0m + pair_d0_1p - pair_d0_1m >= -2
 c95_load_top__force_d0_0m: - pair_v1_0 - pair_v1_1 + pair_d0_0p - pair_d0_0m + pair_d0_1p - pair_d0_1m >= -3
 c96_load_top__force_d0_0m: - pair_v1_0 - pair_v1_1 + pair_d0_0p - pair_d0_0m - pair_d0_1p - pair_d0_1m >= -4
 c97_load_top__force_d0_1m: - pair_v1_0 + pair_v1_1 - pair_d0_0p + pair_d0_0m - pair_d0_1p + pair_d0_1m >= -2
 c98_load_bot__force_h0_0: pair_v1_0 + pair_v1_1 + pair_d0_0p + pair_d0_0m + pair_d0_1p + pair_d0_1m >= 1
 c99_load_bot__force_h0_0: pair_v1_0 + pair_v1_1 + pair_d0_0p + pair_d0_0m + pair_d0_1p - pair_d0_1m >= 0
 c100_load_bot__force_h0_0: pair_v1_0 + pair_v1_1 + pair_d0_0p + pair_d0_0m - pair_d0_1p + pair_d0_1m >= 0
 c101_load_bot__force_h0_0: pair_v1_0 + pair_v1_1 + pair_d0_0p + pair_d0_0m - pair_d0_1p - pair_d0_1m >= -1
 c102_load_bot__force_h0_0: pair_v1_0 + pair_v1_1 + pair_d0_0p - pair_d0_0m + pair_d0_1p + pair_d0_1m >= 0
 c103_load_bot__force_h0_0: pair_v1_0 + pair_v1_1 + pair_d0_0p - pair_d0_0m + pair_d0_1p - pair_d0_1m >= -1
 c104_load_bot__force_h0_0: pair_v1_0 + pair_v1_1 + pair_d0_0p - pair_d0_0m - pair_d0_1p + pair_d0_1m >= -1
 c105_load_bot__force_h0_0: pair_v1_0 + pair_v1_1 + pair_d0_0p - pair_d0_0m - pair_d0_1p - pair_d0_1m >= -2
 c106_load_bot__force_h0_0: pair_v1_0 + pair_v1_1 - pair_d0_0p + pair_d0_0m + pair_d0_1p + pair_d0_1m >= 0
 c107_load_bot__force_h0_0: pair_v1_0 + pair_v1_1 - pair_d0_0p + pair_d0_0m + pair_d0_1p - pair_d0_1m >= -1
 c108_load_bot__force_h0_0: pair_v1_0 + pair_v1_1 - pair_d0_0p + pair_d0_0m - pair_d0_1p + pair_d0_1m >= -1
 c109_load_bot__force_h0_0: pair_v1_0 + pair_v1_1 - pair_d0_0p + pair_d0_0m - pair_d0_1p - pair_d0_1m >= -2
 c110_load_bot__force_h0_0: pair_v1_0 + pair_v1_1 - pair_d0_0p - pair_d0_0m + pair_d0_1p - pair_d0_1m >= -2
 c111_load_bot__force_h0_0: pair_v1_0 + pair_v1_1 - pair_d0_0p - pair_d0_0m - pair_d0_1p - pair_d0_1m >= -3
 c112_load_bot__force_h0_0: pair_v1_0 - pair_v1_1 + pair_d0_0p + pair_d0_0m + pair_d0_1p + pair_d0_1m >= 0
 c113_load_bot__force_h0_0: pair_v1_0 - pair_v1_1 + pair_d0_0p + pair_d0_0m + pair_d0_1p - pair_d0_1m >= -1
 c114_load_bot__force_h0_0: pair_v1_0 - pair_v1_1 + pair_d0_0p + pair_d0_0m - pair_d0_1p + pair_d0_1m >= -1
 c115_load_bot__force_h0_0: pair_v1_0 - pair_v1_1 + pair_d0_0p + pair_d0_0m - pair_d0_1p - pair_d0_1m >= -2
 c116_load_bot__force_h0_0: pair_v1_0 - pair_v1_1 + pair_d0_0p - pair_d0_0m + pair_d0_1p + pair_d0_1m >= -1
 c117_load_bot__force_h0_0: pair_v1_0 - pair_v1_1 + pair_d0_0p - pair_d0_0m + pair_d0_1p - pair_d0_1m >= -2
 c118_load_bot__force_h0_0: pair_v1_0 - pair_v1_1 + pair_d0_0p - pair_d0_0m - pair_d0_1p + pair_d0_1m >= -2
 c119_load_bot__force_h0_0: pair_v1_0 - pair_v1_1 + pair_d0_0p - pair_d0_0m - pair_d0_1p - pair_d0_1m >= -3
 c120_load_bot__force_h0_0: pair_v1_0 - pair_v1_1 - pair_d0_0p + pair_d0_0m + pair_d0_1p + pair_d0_1m >= -1
 c121_load_bot__force_h0_0: pair_v1_0 - pair_v1_1 - pair_d0_0p + pair_d0_0m + pair_d0_1p - pair_d0_1m >= -2
 c122_load_bot__force_h0_0: pair_v1_0 - pair_v1_1 - pair_d0_0p + pair_d0_0m - pair_d0_1p + pair_d0_1m >= -2
 c123_load_bot__force_h0_0: pair_v1_0 - pair_v1_1 - pair_d0_0p + pair_d0_0m - pair_d0_1p - pair_d0_1m >= -3
 c124_load_bot__force_h0_0: pair_v1_0 - pair_v1_1 - pair_d0_0p - pair_d0_0m + pair_d0_1p + pair_d0_1m >= -2
 c125_load_bot__force_h0_0: pair_v1_0 - pair_v1_1 - pair_d0_0p - pair_d0_0m + pair_d0_1p - pair_d0_1m >= -3
 c126_load_bot__force_h0_0: pair_v1_0 - pair_v1_1 - pair_d0_0p - pair_d0_0m - pair_d0_1p - pair_d0_1m >= -4
 c127_load_bot__force_h0_0: - pair_v1_0 + pair_v1_1 + pair_d0_0p + pair_d0_0m + pair_d0_1p + pair_d0_1m >= 0
 c128_load_bot__force_h0_0: - pair_v1_0 + pair_v1_1 + pair_d0_0p + pair_d0_0m + pair_d0_1p - pair_d0_1m >= -1
 c129_load_bot__force_h0_0: - pair_v1_0 + pair_v1_1 + pair_d0_0p + pair_d0_0m - pair_d0_1p + pair_d0_1m >= -1
 c130_load_bot__force_h0_0: - pair_v1_0 + pair_v1_1 + pair_d0_0p + pair_d0_0m - pair_d0_1p - pair_d0_1m >= -2
 c131_load_bot__force_h0_0: - pair_v1_0 + pair_v1_1 + pair_d0_0p - pair_d0_0m + pair_d0_1p + pair_d0_1m >= -1
 c132_load_bot__force_h0_0: - pair_v1_0 + pair_v1_1 + pair_d0_0p - pair_d0_0m + pair_d0_1p - pair_d0_1m >= -2
 c133_load_bot__force_h0_0: - pair_v1_0 + pair_v1_1 + pair_d0_0p - pair_d0_0m - pair_d0_1p + pair_d0_1m >= -2
 c134_load_bot__force_h0_0: - pair_v1_0 + pair_v1_1 + pair_d0_0p - pair_d0_0m - pair_d0_1p - pair_d0_1m >= -3
 c135_load_bot__force_h0_0: - pair_v1_0 + pair_v1_1 - pair_d0_0p + pair_d0_0m + pair_d0_1p + pair_d0_1m >= -1
 c136_load_bot__force_h0_0: - pair_v1_0 + pair_v1_1 - pair_d0_0p + pair_d0_0m + pair_d0_1p - pair_d0_1m >= -2
 c137_load_bot__force_h0_0: - pair_v1_0 + pair_v1_1 - pair_d0_0p + pair_d0_0m - pair_d0_1p + pair_d0_1m >= -2
 c138_load_bot__force_h0_0: - pair_v1_0 + pair_v1_1 - pair_d0_0p + pair_d0_0m - pair_d0_1p - pair_d0_1m >= -3
 c139_load_bot__force_h0_0: - pair_v1_0 + pair_v1_1 - pair_d0_0p - pair_d0_0m + pair_d0_1p + pair_d0_1m >= -2
 c140_load_bot__force_h0_0: - pair_v1_0 + pair_v1_1 - pair_d0_0p - pair_d0_0m + pair_d0_1p - pair_d0_1m >= -3
 c141_load_bot__force_h0_0: - pair_v1_0 + pair_v1_1 - pair_d0_0p - pair_d0_0m - pair_d0_1p + pair_d0_1m >= -3
 c142_load_bot__force_h0_0: - pair_v1_0 + pair_v1_1 - pair_d0_0p - pair_d0_0m - pair_d0_1p - pair_d0_1m >= -4
 c143_load_bot__force_h0_0: - pair_v1_0 - pair_v1_1 + pair_d0_0p + pair_d0_0m + pair_d0_1p + pair_d0_1m >= -1
 c144_load_bot__force_h0_0: - pair_v1_0 - pair_v1_1 + pair_d0_0p + pair_d0_0m + pair_d0_1p - pair_d0_1m >= -2
 c145_load_bot__force_h0_0: - pair_v1_0 - pair_v1_1 + pair_d0_0p + pair_d0_0m - pair_d0_1p + pair_d0_1m >= -2
 c146_load_bot__force_h0_0: - pair_v1_0 - pair_v1_1 + pair_d0_0p + pair_d0_0m - pair_d0_1p - pair_d0_1m >= -3
 c147_load_bot__force_h0_0: - pair_v1_0 - pair_v1_1 + pair_d0_0p - pair_d0_0m + pair_d0_1p + pair_d0_1m >= -2
 c148_load_bot__force_h0_0: - pair_v1_0 - pair_v1_1 + pair_d0_0p - pair_d0_0m + pair_d0_1p - pair_d0_1m >= -3
 c149_load_bot__force_h0_0: - pair_v1_0 - pair_v1_1 + pair_d0_0p - pair_d0_0m - pair_d0_1p + pair_d0_1m >= -3
 c150_load_bot__force_h0_0: - pair_v1_0 - pair_v1_1 + pair_d0_0p - pair_d0_0m - pair_d0_1p - pair_d0_1m >= -4
 c151_load_bot__force_h0_0: - pair_v1_0 - pair_v1_1 - pair_d0_0p + pair_d0_0m + pair_d0_1p + pair_d0_1m >= -2
 c152_load_bot__force_h0_0: - pair_v1_0 - pair_v1_1 - pair_d0_0p + pair_d0_0m + pair_d0_1p - pair_d0_1m >= -3
 c153_load_bot__force_h0_0: - pair_v1_0 - pair_v1_1 - pair_d0_0p + pair_d0_0m - pair_d0_1p + pair_d0_1m >= -3
 c154_load_bot__force_h0_0: - pair_v1_0 - pair_v1_1 - pair_d0_0p + pair_d0_0m - pair_d0_1p - pair_d0_1m >= -4
 c155_load_bot__force_h0_0: - pair_v1_0 - pair_v1_1 - pair_d0_0p - pair_d0_0m + pair_d0_1p + pair_d0_1m >= -3
 c156_load_bot__force_h0_0: - pair_v1_0 - pair_v1_1 - pair_d0_0p - pair_d0_0m + pair_d0_1p - pair_d0_1m >= -4
 c157_load_bot__force_h0_0: - pair_v1_0 - pair_v1_1 - pair_d0_0p - pair_d0_0m - pair_d0_1p + pair_d0_1m >= -4
 c158_load_bot__force_h0_0: - pair_v1_0 - pair_v1_1 - pair_d0_0p - pair_d0_0m - pair_d0_1p - pair_d0_1m >= -5
 c159_load_bot__force_v1_0: - pair_v1_0 + pair_v1_1 + pair_d0_0p - pair_d0_0m + pair_d0_1p + pair_d0_1m >= -1
 c160_load_bot__force_v1_0: - pair_v1_0 + pair_v1_1 + pair_d0_0p - pair_d0_0m + pair_d0_1p - pair_d0_1m >= -2
 c161_load_bot__force_v1_0: - pair_v1_0 + pair_v1_1 + pair_d0_0p - pair_d0_0m - pair_d0_1p + pair_d0_1m >= -2
 c162_load_bot__force_v1_0: - pair_v1_0 + pair_v1_1 + pair_d0_0p - pair_d0_0m - pair_d0_1p - pair_d0_1m >= -3
 c163_load_bot__force_v1_0: - pair_v1_0 + pair_v1_1 - pair_d0_0p + pair_d0_0m + pair_d0_1p + pair_d0_1m >= -1
 c164_load_bot__force_v1_0: - pair_v1_0 + pair_v1_1 - pair_d0_0p + pair_d0_0m - pair_d0_1p + pair_d0_1m >= -2
 c165_load_bot__force_v1_0: - pair_v1_0 + pair_v1_1 - pair_d0_0p - pair_d0_0m + pair_d0_1p + pair_d0_1m >= -2
 c166_load_bot__force_v1_0: - pair_v1_0 + pair_v1_1 - pair_d0_0p - pair_d0_0m + pair_d0_1p - pair_d0_1m >= -3
 c167_load_bot__force_v1_0: - pair_v1_0 + pair_v1_1 - pair_d0_0p - pair_d0_0m - pair_d0_1p + pair_d0_1m >= -3
 c168_load_bot__force_v1_0: - pair_v1_0 + pair_v1_1 - pair_d0_0p - pair_d0_0m - pair_d0_1p - pair_d0_1m >= -4
 c169_load_bot__force_v1_0: - pair_v1_0 - pair_v1_1 + pair_d0_0p - pair_d0_0m + pair_d0_1p + pair_d0_1m >= -2
 c170_load_bot__force_v1_0: - pair_v1_0 - pair_v1_1 + pair_d0_0p - pair_d0_0m + pair_d0_1p - pair_d0_1m >= -3
 c171_load_bot__force_v1_0: - pair_v1_0 - pair_v1_1 + pair_d0_0p - pair_d0_0m - pair_d0_1p + pair_d0_1m >= -3
 c172_load_bot__force_v1_0: - pair_v1_0 - pair_v1_1 + pair_d0_0p - pair_d0_0m - pair_d0_1p - pair_d0_1m >= -4
 c173_load_bot__force_v1_0: - pair_v1_0 - pair_v1_1 - pair_d0_0p + pair_d0_0m + pair_d0_1p + pair_d0_1m >= -2
 c174_load_bot__force_v1_0: - pair_v1_0 - pair_v1_1 - pair_d0_0p + pair_d0_0m - pair_d0_1p + pair_d0_1m >= -3
 c175_load_bot__force_v1_0: - pair_v1_0 - pair_v1_1 - pair_d0_0p - pair_d0_0m + pair_d0_1p + pair_d0_1m >= -3
 c176_load_bot__force_v1_0: - pair_v1_0 - pair_v1_1 - pair_d0_0p - pair_d0_0m + pair_d0_1p - pair_d0_1m >= -4
 c177_load_bot__force_v1_0: - pair_v1_0 - pair_v1_1 - pair_d0_0p - pair_d0_0m - pair_d0_1p + pair_d0_1m >= -4
 c178_load_bot__force_v1_0: - pair_v1_0 - pair_v1_1 - pair_d0_0p - pair_d0_0m - pair_d0_1p - pair_d0_1m >= -5
 c179_load_bot__force_v1_1: pair_v1_0 - pair_v1_1 + pair_d0_0p + pair_d0_0m - pair_d0_1p + pair_d0_1m >= -1
 c180_load_bot__force_v1_1: pair_v1_0 - pair_v1_1 + pair_d0_0p + pair_d0_0m - pair_d0_1p - pair_d0_1m >= -2
 c181_load_bot__force_v1_1: pair_v1_0 - pair_v1_1 + pair_d0_0p - pair_d0_0m - pair_d0_1p + pair_d0_1m >= -2
 c182_load_bot__force_v1_1: pair_v1_0 - pair_v1_1 + pair_d0_0p - pair_d0_0m - pair_d0_1p - pair_d0_1m >= -3
 c183_load_bot__force_v1_1: pair_v1_0 - pair_v1_1 - pair_d0_0p + pair_d0_0m - pair_d0_1p - pair_d0_1m >= -3
 c184_load_bot__force_v1_1: pair_v1_0 - pair_v1_1 - pair_d0_0p - pair_d0_0m - pair_d0_1p + pair_d0_1m >= -3
 c185_load_bot__force_v1_1: pair_v1_0 - pair_v1_1 - pair_d0_0p - pair_d0_0m - pair_d0_1p - pair_d0_1m >= -4
 c186_load_bot__force_v1_1: - pair_v1_0 - pair_v1_1 + pair_d0_0p + pair_d0_0m - pair_d0_1p + pair_d0_1m >= -2
 c187_load_bot__force_v1_1: - pair_v1_0 - pair_v1_1 + pair_d0_0p + pair_d0_0m - pair_d0_1p - pair_d0_1m >= -3
 c188_load_bot__force_v1_1: - pair_v1_0 - pair_v1_1 + pair_d0_0p - pair_d0_0m - pair_d0_1p + pair_d0_1m >= -3
 c189_load_bot__force_v1_1: - pair_v1_0 - pair_v1_1 + pair_d0_0p - pair_d0_0m - pair_d0_1p - pair_d0_1m >= -4
 c190_load_bot__force_v1_1: - pair_v1_0 - pair_v1_1 - pair_d0_0p + pair_d0_0m - pair_d0_1p - pair_d0_1m >= -4
 c191_load_bot__force_v1_1: - pair_v1_0 - pair_v1_1 - pair_d0_0p - pair_d0_0m - pair_d0_1p - pair_d0_1m >= -5
 c192_load_bot__force_d0_0p: pair_v1_0 - pair_v1_1 + pair_d0_0p - pair_d0_0m + pair_d0_1p - pair_d0_1m >= -2
 c193_load_bot__force_d0_1p: pair_v1_0 - pair_v1_1 - pair_d0_0p + pair_d0_0m - pair_d0_1p + pair_d0_1m >= -2
 c194_load_bot__force_d0_1p: - pair_v1_0 - pair_v1_1 - pair_d0_0p + pair_d0_0m - pair_d0_1p + pair_d0_1m >= -3
 c195_load_bot__force_d0_1p: - pair_v1_0 - pair_v1_1 - pair_d0_0p - pair_d0_0m - pair_d0_1p + pair_d0_1m >= -4
Binary
 pair_v1_0
 pair_v1_1
 pair_d0_0p
 pair_d0_0m
 pair_d0_1p
 pair_d0_1m
End
