\ Boolean forbidden-tuple encoding
Minimize
 obj: 0
Subject To
 c0_load_low__t1: p1__load_low >= 1
 c1_load_low__t2: - p2__load_low >= 0
 c2_load_low__t3: - p3__load_low >= 0
 c3_load_low__t4: - p4__load_low >= 0
 c4_load_low__t5: - p5__load_low >= 0
 c5_load_low__t6: - p6__load_low >= 0
 c6_load_low__t7: - p7__load_low >= 0
 c7_load_low__t8: - p8__load_low >= 0
 c8_load_low__t9: - p9__load_low >= 0
 c9_load_low__t10: - p10__load_low >= 0
 c10_load_low__t11: - p11__load_low >= 0
 c11_load_low__t12: - p12__load_low >= 0
 c12_load_low__t13: - p13__load_low >= 0
 c13_load_low__t14: - p14__load_low >= 0
 c14_load_low__t15: - p15__load_low >= 0
 c15_load_low__t16: - p16__load_low >= 0
 c16_load_low__t17: - p17__load_low >= 0
 c17_load_low__t18: - p18__load_low >= 0
 c18_load_low__t19: - p19__load_low >= 0
 c19_load_low__t20: - p20__load_low >= 0
 c20_load_low__t21: - p21__load_low >= 0
 c21_load_low__t22: - p22__load_low >= 0
 c22_load_low__t23: - p23__load_low >= 0
 c23_load_low__t24: - p24__load_low >= 0
 c24_load_low__t25: - p25__load_low >= 0
 c25_load_low__t26: - p26__load_low >= 0
 c26_load_low__t27: - p27__load_low >= 0
 c27_load_low__t28: - p28__load_low >= 0
 c28_load_low__t29: - p29__load_low >= 0
 c29_load_low__t30: - p30__load_low >= 0
 c30_load_low__t31: - p31__load_low >= 0
 c31_load_low__t32: - p32__load_low >= 0
 c32_load_low__t33: - p33__load_low >= 0
 c33_load_low__t34: - p34__load_low >= 0
 c34_load_low__t35: - p35__load_low >= 0
 c35_load_low__t36: - p36__load_low >= 0
 c36_load_low__t37: - p37__load_low >= 0
 c37_load_low__t38: - p38__load_low >= 0
 c38_load_low__t39: - p39__load_low >= 0
 c39_load_low__t40: - p40__load_low >= 0
 c40_load_low__t41: - p41__load_low >= 0
 c41_load_low__t42: - p42__load_low >= 0
 c42_load_low__t43: - p43__load_low >= 0
 c43_load_low__t44: - p44__load_low >= 0
 c44_load_low__t45: - p45__load_low >= 0
 c45_load_low__t46: - p46__load_low >= 0
 c46_load_low__t47: - p47__load_low >= 0
 c47_load_low__t48: - p48__load_low >= 0
 c48_load_low__t49: - p49__load_low >= 0
 c49_load_low__t50: - p50__load_low >= 0
 c50_load_low__t51: - p51__load_low >= 0
 c51_load_low__t52: - p52__load_low >= 0
 c52_load_low__t53: - p53__load_low >= 0
 c53_load_low__t54: - p54__load_low >= 0
 c54_load_low__t55: - p55__load_low >= 0
 c55_load_low__t56: - p56__load_low >= 0
 c56_load_low__t57: - p57__load_low >= 0
 c57_load_low__t58: - p58__load_low >= 0
 c58_load_low__t59: - p59__load_low >= 0
 c59_load_low__t60: - p60__load_low >= 0
 c60_load_low__t61: - p61__load_low >= 0
 c61_load_low__t62: - p62__load_low >= 0
 c62_load_low__t63: - p63__load_low >= 0
 c63_load_low__t64: - p64__load_low >= 0
 c64_load_low__t65: - p65__load_low >= 0
 c65_load_low__t66: - p66__load_low >= 0
 c66_load_low__t67: - p67__load_low >= 0
 c67_load_low__t68: - p68__load_low >= 0
 c68_load_low__t69: - p69__load_low >= 0
 c69_load_low__t70: - p70__load_low >= 0
 c70_load_low__t71: - p71__load_low >= 0
 c71_load_low__t72: - p72__load_low >= 0
 c72_load_low__t73: - p73__load_low >= 0
 c73_load_low__t74: - p74__load_low >= 0
 c74_load_low__t75: - p75__load_low >= 0
 c75_load_low__t76: - p76__load_low >= 0
 c76_load_low__t77: - p77__load_low >= 0
 c77_load_low__t78: - p78__load_low >= 0
 c78_load_low__t79: - p79__load_low >= 0
 c79_load_low__t80: - p80__load_low >= 0
 c80_load_low__t81: - p81__load_low >= 0
 c81_load_low__t82: - p82__load_low >= 0
 c82_load_low__t83: - p83__load_low >= 0
 c83_load_low__t84: - p84__load_low >= 0
 c84_load_low__t85: - p85__load_low >= 0
 c85_load_low__t86: - p86__load_low >= 0
 c86_load_low__t87: - p87__load_low >= 0
 c87_load_low__t88: - p88__load_low >= 0
 c88_load_low__t89: - p89__load_low >= 0
 c89_load_low__t90: - p90__load_low >= 0
 c90_load_low__t91: - p91__load_low >= 0
 c91_load_low__t92: - p92__load_low >= 0
 c92_load_low__t93: - p93__load_low >= 0
 c93_load_low__t94: - p94__load_low >= 0
 c94_load_low__t95: - p95__load_low >= 0
 c95_load_low__t96: - p96__load_low >= 0
 c96_load_low__t97: - p97__load_low >= 0
 c97_load_low__t98: - p98__load_low >= 0
 c98_load_low__t99: - p99__load_low >= 0
 c99_load_low__t100: - p100__load_low >= 0
 c100_load_low__t101: - p101__load_low >= 0
 c101_load_low__t102: - p102__load_low >= 0
 c102_load_low__t103: - p103__load_low >= 0
 c103_load_low__t104: - p104__load_low >= 0
 c104_load_low__t105: - p105__load_low >= 0
 c105_load_low__t106: - p106__load_low >= 0
 c106_load_low__t107: - p107__load_low >= 0
 c107_load_low__t108: - p108__load_low >= 0
 c108_load_low__t109: - p109__load_low >= 0
 c109_load_low__t110: - p110__load_low >= 0
 c110_load_low__t111: - p111__load_low >= 0
 c111_load_low__t112: - p112__load_low >= 0
 c112_load_low__t113: - p113__load_low >= 0
 c113_load_low__t114: - p114__load_low >= 0
 c114_load_low__t115: - p115__load_low >= 0
 c115_load_low__t116: - p116__load_low >= 0
 c116_load_low__t117: - p117__load_low >= 0
 c117_load_low__t118: - p118__load_low >= 0
 c118_load_low__t119: - p119__load_low >= 0
 c119_load_low__t120: - p120__load_low >= 0
 c120_load_low__t121: - p121__load_low >= 0
 c121_load_low__t122: - p122__load_low >= 0
 c122_load_low__t123: - p123__load_low >= 0
 c123_load_low__t124: - p124__load_low >= 0
 c124_load_low__t125: - p125__load_low >= 0
 c125_load_low__t126: - p126__load_low >= 0
 c126_load_low__t127: - p127__load_low >= 0
 c127_load_low__t128: - p128__load_low >= 0
 c128_load_low__t129: - p129__load_low >= 0
 c129_load_low__t130: - p130__load_low >= 0
 c130_load_low__t131: - p131__load_low >= 0
 c131_load_low__t132: - p132__load_low >= 0
 c132_load_low__t133: - p133__load_low >= 0
 c133_load_low__t134: - p134__load_low >= 0
 c134_load_low__t135: - p135__load_low >= 0
 c135_load_low__t136: - p136__load_low >= 0
 c136_load_low__t137: - p137__load_low >= 0
 c137_load_low__t138: - p138__load_low >= 0
 c138_load_low__t139: - p139__load_low >= 0
 c139_load_low__t140: - p140__load_low >= 0
 c140_load_low__t141: - p141__load_low >= 0
 c141_load_low__t142: - p142__load_low >= 0
 c142_load_low__t143: - p143__load_low >= 0
 c143_load_low__t144: - p144__load_low >= 0
 c144_load_low__t145: - p145__load_low >= 0
 c145_load_low__t146: - p146__load_low >= 0
 c146_load_low__t147: - p147__load_low >= 0
 c147_load_low__t148: - p148__load_low >= 0
 c148_load_low__t149: - p149__load_low >= 0
 c149_load_low__t150: - p150__load_low >= 0
 c150_load_low__t151: - p151__load_low >= 0
 c151_load_low__t152: - p152__load_low >= 0
 c152_load_low__t153: - p153__load_low >= 0
 c153_load_low__t154: - p154__load_low >= 0
 c154_load_low__t155: - p155__load_low >= 0
 c155_load_low__t156: - p156__load_low >= 0
 c156_load_low__t157: - p157__load_low >= 0
 c157_load_low__t158: - p158__load_low >= 0
 c158_load_low__t159: - p159__load_low >= 0
 c159_load_low__t160: - p160__load_low >= 0
 c160_load_low__t161: - p161__load_low >= 0
 c161_load_low__t162: - p162__load_low >= 0
 c162_load_low__t163: - p163__load_low >= 0
 c163_load_low__t164: - p164__load_low >= 0
 c164_load_low__t165: - p165__load_low >= 0
 c165_load_low__t166: - p166__load_low >= 0
 c166_load_low__t167: - p167__load_low >= 0
 c167_load_low__t168: - p168__load_low >= 0
 c168_load_low__t169: - p169__load_low >= 0
 c169_load_low__t170: - p170__load_low >= 0
 c170_load_low__t171: - p171__load_low >= 0
 c171_load_low__t172: - p172__load_low >= 0
 c172_load_low__t173: - p173__load_low >= 0
 c173_load_low__t174: - p174__load_low >= 0
 c174_load_low__t175: - p175__load_low >= 0
 c175_load_low__t176: - p176__load_low >= 0
 c176_load_low__t177: - p177__load_low >= 0
 c177_load_low__t178: - p178__load_low >= 0
 c178_load_low__t179: - p179__load_low >= 0
 c179_load_low__t180: - p180__load_low >= 0
 c180_load_low__t181: - p181__load_low >= 0
 c181_load_low__t182: - p182__load_low >= 0
 c182_load_low__t183: - p183__load_low >= 0
 c183_load_low__t184: - p184__load_low >= 0
 c184_load_low__t185: - p185__load_low >= 0
 c185_load_low__t186: - p186__load_low >= 0
 c186_load_low__t187: - p187__load_low >= 0
 c187_load_low__t188: - p188__load_low >= 0
 c188_load_low__t189: - p189__load_low >= 0
 c189_load_low__t190: - p190__load_low >= 0
 c190_load_low__t191: - p191__load_low >= 0
 c191_load_low__t192: - p192__load_low >= 0
 c192_load_low__t193: - p193__load_low >= 0
 c193_load_low__t194: - p194__load_low >= 0
 c194_load_low__t195: - p195__load_low >= 0
 c195_load_low__t196: - p196__load_low >= 0
 c196_load_low__t197: - p197__load_low >= 0
 c197_load_low__t198: - p198__load_low >= 0
 c198_load_low__t199: - p199__load_low >= 0
 c199_load_low__t200: - p200__load_low >= 0
 c200_load_low__t201: - p201__load_low >= 0
 c201_load_low__t202: - p202__load_low >= 0
 c202_load_low__t203: - p203__load_low >= 0
 c203_load_low__t204: - p204__load_low >= 0
 c204_load_low__t205: - p205__load_low >= 0
 c205_load_low__t206: - p206__load_low >= 0
 c206_load_low__t207: - p207__load_low >= 0
 c207_load_low__t208: - p208__load_low >= 0
 c208_load_low__t209: - p209__load_low >= 0
 c209_load_low__t210: - p210__load_low >= 0
 c210_load_low__t211: - p211__load_low >= 0
 c211_load_low__t212: - p212__load_low >= 0
 c212_load_low__t213: - p213__load_low >= 0
 c213_load_low__t214: - p214__load_low >= 0
 c214_load_low__t215: - p215__load_low >= 0
 c215_load_low__t216: - p216__load_low >= 0
 c216_load_low__t217: - p217__load_low >= 0
 c217_load_low__t218: - p218__load_low >= 0
 c218_load_low__t219: - p219__load_low >= 0
 c219_load_low__t220: - p220__load_low >= 0
 c220_load_low__t221: - p221__load_low >= 0
 c221_load_low__t222: - p222__load_low >= 0
 c222_load_low__t223: - p223__load_low >= 0
 c223_load_low__t224: - p224__load_low >= 0
 c224_load_low__t225: - p225__load_low >= 0
 c225_load_low__t226: - p226__load_low >= 0
 c226_load_low__t227: - p227__load_low >= 0
 c227_load_low__t228: - p228__load_low >= 0
 c228_load_low__t229: - p229__load_low >= 0
 c229_load_low__t230: - p230__load_low >= 0
 c230_load_low__t231: - p231__load_low >= 0
 c231_load_low__t232: - p232__load_low >= 0
 c232_load_low__t233: - p233__load_low >= 0
 c233_load_low__t234: - p234__load_low >= 0
 c234_load_low__t235: - p235__load_low >= 0
 c235_load_low__t236: - p236__load_low >= 0
 c236_load_low__t237: - p237__load_low >= 0
 c237_load_low__t238: - p238__load_low >= 0
 c238_load_low__t239: - p239__load_low >= 0
 c239_load_low__t240: - p240__load_low >= 0
 c240_load_low__t241: - p241__load_low >= 0
 c241_load_low__t242: - p242__load_low >= 0
 c242_load_low__t243: - p243__load_low >= 0
 c243_load_low__t244: - p244__load_low >= 0
 c244_load_low__t245: - p245__load_low >= 0
 c245_load_low__t246: - p246__load_low >= 0
 c246_load_low__t247: - p247__load_low >= 0
 c247_load_low__t248: - p248__load_low >= 0
 c248_load_low__t249: - p249__load_low >= 0
 c249_load_low__t250: - p250__load_low >= 0
 c250_load_low__t251: - p251__load_low >= 0
 c251_load_low__t252: - p252__load_low >= 0
 c252_load_low__t253: - p253__load_low >= 0
 c253_load_low__t254: - p254__load_low >= 0
 c254_load_low__t255: - p255__load_low >= 0
 c255_load_low__t256: - p256__load_low >= 0
 c256_load_high__t1: p1__load_high >= 1
 c257_load_high__t2: p2__load_high >= 1
 c258_load_high__t3: p3__load_high >= 1
 c259_load_high__t4: p4__load_high >= 1
 c260_load_high__t5: p5__load_high >= 1
 c261_load_high__t6: p6__load_high >= 1
 c262_load_high__t7: p7__load_high >= 1
 c263_load_high__t8: p8__load_high >= 1
 c264_load_high__t9: p9__load_high >= 1
 c265_load_high__t10: p10__load_high >= 1
 c266_load_high__t11: p11__load_high >= 1
 c267_load_high__t12: p12__load_high >= 1
 c268_load_high__t13: p13__load_high >= 1
 c269_load_high__t14: p14__load_high >= 1
 c270_load_high__t15: p15__load_high >= 1
 c271_load_high__t16: p16__load_high >= 1
 c272_load_high__t17: p17__load_high >= 1
 c273_load_high__t18: p18__load_high >= 1
 c274_load_high__t19: p19__load_high >= 1
 c275_load_high__t20: p20__load_high >= 1
 c276_load_high__t21: p21__load_high >= 1
 c277_load_high__t22: p22__load_high >= 1
 c278_load_high__t23: p23__load_high >= 1
 c279_load_high__t24: p24__load_high >= 1
 c280_load_high__t25: p25__load_high >= 1
 c281_load_high__t26: p26__load_high >= 1
 c282_load_high__t27: p27__load_high >= 1
 c283_load_high__t28: p28__load_high >= 1
 c284_load_high__t29: p29__load_high >= 1
 c285_load_high__t30: p30__load_high >= 1
 c286_load_high__t31: p31__load_high >= 1
 c287_load_high__t32: p32__load_high >= 1
 c288_load_high__t33: p33__load_high >= 1
 c289_load_high__t34: p34__load_high >= 1
 c290_load_high__t35: p35__load_high >= 1
 c291_load_high__t36: p36__load_high >= 1
 c292_load_high__t37: p37__load_high >= 1
 c293_load_high__t38: p38__load_high >= 1
 c294_load_high__t39: p39__load_high >= 1
 c295_load_high__t40: p40__load_high >= 1
 c296_load_high__t41: p41__load_high >= 1
 c297_load_high__t42: p42__load_high >= 1
 c298_load_high__t43: p43__load_high >= 1
 c299_load_high__t44: p44__load_high >= 1
 c300_load_high__t45: p45__load_high >= 1
 c301_load_high__t46: p46__load_high >= 1
 c302_load_high__t47: p47__load_high >= 1
 c303_load_high__t48: p48__load_high >= 1
 c304_load_high__t49: p49__load_high >= 1
 c305_load_high__t50: p50__load_high >= 1
 c306_load_high__t51: p51__load_high >= 1
 c307_load_high__t52: p52__load_high >= 1
 c308_load_high__t53: p53__load_high >= 1
 c309_load_high__t54: p54__load_high >= 1
 c310_load_high__t55: p55__load_high >= 1
 c311_load_high__t56: p56__load_high >= 1
 c312_load_high__t57: p57__load_high >= 1
 c313_load_high__t58: p58__load_high >= 1
 c314_load_high__t59: p59__load_high >= 1
 c315_load_high__t60: p60__load_high >= 1
 c316_load_high__t61: p61__load_high >= 1
 c317_load_high__t62: p62__load_high >= 1
 c318_load_high__t63: p63__load_high >= 1
 c319_load_high__t64: p64__load_high >= 1
 c320_load_high__t65: p65__load_high >= 1
 c321_load_high__t66: p66__load_high >= 1
 c322_load_high__t67: p67__load_high >= 1
 c323_load_high__t68: p68__load_high >= 1
 c324_load_high__t69: p69__load_high >= 1
 c325_load_high__t70: p70__load_high >= 1
 c326_load_high__t71: p71__load_high >= 1
 c327_load_high__t72: p72__load_high >= 1
 c328_load_high__t73: p73__load_high >= 1
 c329_load_high__t74: p74__load_high >= 1
 c330_load_high__t75: p75__load_high >= 1
 c331_load_high__t76: p76__load_high >= 1
 c332_load_high__t77: p77__load_high >= 1
 c333_load_high__t78: p78__load_high >= 1
 c334_load_high__t79: p79__load_high >= 1
 c335_load_high__t80: p80__load_high >= 1
 c336_load_high__t81: p81__load_high >= 1
 c337_load_high__t82: p82__load_high >= 1
 c338_load_high__t83: p83__load_high >= 1
 c339_load_high__t84: p84__load_high >= 1
 c340_load_high__t85: p85__load_high >= 1
 c341_load_high__t86: p86__load_high >= 1
 c342_load_high__t87: p87__load_high >= 1
 c343_load_high__t88: p88__load_high >= 1
 c344_load_high__t89: p89__load_high >= 1
 c345_load_high__t90: p90__load_high >= 1
 c346_load_high__t91: p91__load_high >= 1
 c347_load_high__t92: p92__load_high >= 1
 c348_load_high__t93: p93__load_high >= 1
 c349_load_high__t94: p94__load_high >= 1
 c350_load_high__t95: p95__load_high >= 1
 c351_load_high__t96: p96__load_high >= 1
 c352_load_high__t97: p97__load_high >= 1
 c353_load_high__t98: p98__load_high >= 1
 c354_load_high__t99: p99__load_high >= 1
 c355_load_high__t100: p100__load_high >= 1
 c356_load_high__t101: p101__load_high >= 1
 c357_load_high__t102: p102__load_high >= 1
 c358_load_high__t103: p103__load_high >= 1
 c359_load_high__t104: p104__load_high >= 1
 c360_load_high__t105: p105__load_high >= 1
 c361_load_high__t106: p106__load_high >= 1
 c362_load_high__t107: p107__load_high >= 1
 c363_load_high__t108: p108__load_high >= 1
 c364_load_high__t109: p109__load_high >= 1
 c365_load_high__t110: p110__load_high >= 1
 c366_load_high__t111: p111__load_high >= 1
 c367_load_high__t112: p112__load_high >= 1
 c368_load_high__t113: p113__load_high >= 1
 c369_load_high__t114: p114__load_high >= 1
 c370_load_high__t115: p115__load_high >= 1
 c371_load_high__t116: p116__load_high >= 1
 c372_load_high__t117: p117__load_high >= 1
 c373_load_high__t118: p118__load_high >= 1
 c374_load_high__t119: p119__load_high >= 1
 c375_load_high__t120: p120__load_high >= 1
 c376_load_high__t121: p121__load_high >= 1
 c377_load_high__t122: p122__load_high >= 1
 c378_load_high__t123: p123__load_high >= 1
 c379_load_high__t124: p124__load_high >= 1
 c380_load_high__t125: p125__load_high >= 1
 c381_load_high__t126: p126__load_high >= 1
 c382_load_high__t127: p127__load_high >= 1
 c383_load_high__t128: p128__load_high >= 1
 c384_load_high__t129: p129__load_high >= 1
 c385_load_high__t130: p130__load_high >= 1
 c386_load_high__t131: p131__load_high >= 1
 c387_load_high__t132: p132__load_high >= 1
 c388_load_high__t133: p133__load_high >= 1
 c389_load_high__t134: p134__load_high >= 1
 c390_load_high__t135: p135__load_high >= 1
 c391_load_high__t136: p136__load_high >= 1
 c392_load_high__t137: p137__load_high >= 1
 c393_load_high__t138: p138__load_high >= 1
 c394_load_high__t139: p139__load_high >= 1
 c395_load_high__t140: p140__load_high >= 1
 c396_load_high__t141: p141__load_high >= 1
 c397_load_high__t142: p142__load_high >= 1
 c398_load_high__t143: p143__load_high >= 1
 c399_load_high__t144: p144__load_high >= 1
 c400_load_high__t145: p145__load_high >= 1
 c401_load_high__t146: p146__load_high >= 1
 c402_load_high__t147: p147__load_high >= 1
 c403_load_high__t148: p148__load_high >= 1
 c404_load_high__t149: p149__load_high >= 1
 c405_load_high__t150: p150__load_high >= 1
 c406_load_high__t151: p151__load_high >= 1
 c407_load_high__t152: p152__load_high >= 1
 c408_load_high__t153: p153__load_high >= 1
 c409_load_high__t154: p154__load_high >= 1
 c410_load_high__t155: p155__load_high >= 1
 c411_load_high__t156: p156__load_high >= 1
 c412_load_high__t157: p157__load_high >= 1
 c413_load_high__t158: p158__load_high >= 1
 c414_load_high__t159: p159__load_high >= 1
 c415_load_high__t160: p160__load_high >= 1
 c416_load_high__t161: p161__load_high >= 1
 c417_load_high__t162: p162__load_high >= 1
 c418_load_high__t163: p163__load_high >= 1
 c419_load_high__t164: p164__load_high >= 1
 c420_load_high__t165: p165__load_high >= 1
 c421_load_high__t166: p166__load_high >= 1
 c422_load_high__t167: p167__load_high >= 1
 c423_load_high__t168: p168__load_high >= 1
 c424_load_high__t169: p169__load_high >= 1
 c425_load_high__t170: p170__load_high >= 1
 c426_load_high__t171: p171__load_high >= 1
 c427_load_high__t172: p172__load_high >= 1
 c428_load_high__t173: p173__load_high >= 1
 c429_load_high__t174: p174__load_high >= 1
 c430_load_high__t175: p175__load_high >= 1
 c431_load_high__t176: p176__load_high >= 1
 c432_load_high__t177: p177__load_high >= 1
 c433_load_high__t178: p178__load_high >= 1
 c434_load_high__t179: p179__load_high >= 1
 c435_load_high__t180: p180__load_high >= 1
 c436_load_high__t181: p181__load_high >= 1
 c437_load_high__t182: p182__load_high >= 1
 c438_load_high__t183: p183__load_high >= 1
 c439_load_high__t184: p184__load_high >= 1
 c440_load_high__t185: p185__load_high >= 1
 c441_load_high__t186: p186__load_high >= 1
 c442_load_high__t187: p187__load_high >= 1
 c443_load_high__t188: p188__load_high >= 1
 c444_load_high__t189: p189__load_high >= 1
 c445_load_high__t190: p190__load_high >= 1
 c446_load_high__t191: p191__load_high >= 1
 c447_load_high__t192: p192__load_high >= 1
 c448_load_high__t193: p193__load_high >= 1
 c449_load_high__t194: p194__load_high >= 1
 c450_load_high__t195: p195__load_high >= 1
 c451_load_high__t196: p196__load_high >= 1
 c452_load_high__t197: p197__load_high >= 1
 c453_load_high__t198: p198__load_high >= 1
 c454_load_high__t199: p199__load_high >= 1
 c455_load_high__t200: p200__load_high >= 1
 c456_load_high__t201: p201__load_high >= 1
 c457_load_high__t202: p202__load_high >= 1
 c458_load_high__t203: p203__load_high >= 1
 c459_load_high__t204: p204__load_high >= 1
 c460_load_high__t205: p205__load_high >= 1
 c461_load_high__t206: p206__load_high >= 1
 c462_load_high__t207: p207__load_high >= 1
 c463_load_high__t208: p208__load_high >= 1
 c464_load_high__t209: p209__load_high >= 1
 c465_load_high__t210: p210__load_high >= 1
 c466_load_high__t211: p211__load_high >= 1
 c467_load_high__t212: p212__load_high >= 1
 c468_load_high__t213: p213__load_high >= 1
 c469_load_high__t214: p214__load_high >= 1
 c470_load_high__t215: p215__load_high >= 1
 c471_load_high__t216: p216__load_high >= 1
 c472_load_high__t217: p217__load_high >= 1
 c473_load_high__t218: p218__load_high >= 1
 c474_load_high__t219: p219__load_high >= 1
 c475_load_high__t220: p220__load_high >= 1
 c476_load_high__t221: p221__load_high >= 1
 c477_load_high__t222: p222__load_high >= 1
 c478_load_high__t223: p223__load_high >= 1
 c479_load_high__t224: p224__load_high >= 1
 c480_load_high__t225: p225__load_high >= 1
 c481_load_high__t226: p226__load_high >= 1
 c482_load_high__t227: p227__load_high >= 1
 c483_load_high__t228: p228__load_high >= 1
 c484_load_high__t229: p229__load_high >= 1
 c485_load_high__t230: p230__load_high >= 1
 c486_load_high__t231: p231__load_high >= 1
 c487_load_high__t232: p232__load_high >= 1
 c488_load_high__t233: p233__load_high >= 1
 c489_load_high__t234: p234__load_high >= 1
 c490_load_high__t235: p235__load_high >= 1
 c491_load_high__t236: p236__load_high >= 1
 c492_load_high__t237: p237__load_high >= 1
 c493_load_high__t238: p238__load_high >= 1
 c494_load_high__t239: p239__load_high >= 1
 c495_load_high__t240: p240__load_high >= 1
 c496_load_high__t241: p241__load_high >= 1
 c497_load_high__t242: p242__load_high >= 1
 c498_load_high__t243: p243__load_high >= 1
 c499_load_high__t244: p244__load_high >= 1
 c500_load_high__t245: p245__load_high >= 1
 c501_load_high__t246: p246__load_high >= 1
 c502_load_high__t247: p247__load_high >= 1
 c503_load_high__t248: p248__load_high >= 1
 c504_load_high__t249: p249__load_high >= 1
 c505_load_high__t250: p250__load_high >= 1
 c506_load_high__t251: p251__load_high >= 1
 c507_load_high__t252: p252__load_high >= 1
 c508_load_high__t253: p253__load_high >= 1
 c509_load_high__t254: p254__load_high >= 1
 c510_load_high__t255: p255__load_high >= 1
 c511_load_high__t256: p256__load_high >= 1
Binary
 p1__load_low
 p2__load_low
 p3__load_low
 p4__load_low
 p5__load_low
 p6__load_low
 p7__load_low
 p8__load_low
 p9__load_low
 p10__load_low
 p11__load_low
 p12__load_low
 p13__load_low
 p14__load_low
 p15__load_low
 p16__load_low
 p17__load_low
 p18__load_low
 p19__load_low
 p20__load_low
 p21__load_low
 p22__load_low
 p23__load_low
 p24__load_low
 p25__load_low
 p26__load_low
 p27__load_low
 p28__load_low
 p29__load_low
 p30__load_low
 p31__load_low
 p32__load_low
 p33__load_low
 p34__load_low
 p35__load_low
 p36__load_low
 p37__load_low
 p38__load_low
 p39__load_low
 p40__load_low
 p41__load_low
 p42__load_low
 p43__load_low
 p44__load_low
 p45__load_low
 p46__load_low
 p47__load_low
 p48__load_low
 p49__load_low
 p50__load_low
 p51__load_low
 p52__load_low
 p53__load_low
 p54__load_low
 p55__load_low
 p56__load_low
 p57__load_low
 p58__load_low
 p59__load_low
 p60__load_low
 p61__load_low
 p62__load_low
 p63__load_low
 p64__load_low
 p65__load_low
 p66__load_low
 p67__load_low
 p68__load_low
 p69__load_low
 p70__load_low
 p71__load_low
 p72__load_low
 p73__load_low
 p74__load_low
 p75__load_low
 p76__load_low
 p77__load_low
 p78__load_low
 p79__load_low
 p80__load_low
 p81__load_low
 p82__load_low
 p83__load_low
 p84__load_low
 p85__load_low
 p86__load_low
 p87__load_low
 p88__load_low
 p89__load_low
 p90__load_low
 p91__load_low
 p92__load_low
 p93__load_low
 p94__load_low
 p95__load_low
 p96__load_low
 p97__load_low
 p98__load_low
 p99__load_low
 p100__load_low
 p101__load_low
 p102__load_low
 p103__load_low
 p104__load_low
 p105__load_low
 p106__load_low
 p107__load_low
 p108__load_low
 p109__load_low
 p110__load_low
 p111__load_low
 p112__load_low
 p113__load_low
 p114__load_low
 p115__load_low
 p116__load_low
 p117__load_low
 p118__load_low
 p119__load_low
 p120__load_low
 p121__load_low
 p122__load_low
 p123__load_low
 p124__load_low
 p125__load_low
 p126__load_low
 p127__load_low
 p128__load_low
 p129__load_low
 p130__load_low
 p131__load_low
 p132__load_low
 p133__load_low
 p134__load_low
 p135__load_low
 p136__load_low
 p137__load_low
 p138__load_low
 p139__load_low
 p140__load_low
 p141__load_low
 p142__load_low
 p143__load_low
 p144__load_low
 p145__load_low
 p146__load_low
 p147__load_low
 p148__load_low
 p149__load_low
 p150__load_low
 p151__load_low
 p152__load_low
 p153__load_low
 p154__load_low
 p155__load_low
 p156__load_low
 p157__load_low
 p158__load_low
 p159__load_low
 p160__load_low
 p161__load_low
 p162__load_low
 p163__load_low
 p164__load_low
 p165__load_low
 p166__load_low
 p167__load_low
 p168__load_low
 p169__load_low
 p170__load_low
 p171__load_low
 p172__load_low
 p173__load_low
 p174__load_low
 p175__load_low
 p176__load_low
 p177__load_low
 p178__load_low
 p179__load_low
 p180__load_low
 p181__load_low
 p182__load_low
 p183__load_low
 p184__load_low
 p185__load_low
 p186__load_low
 p187__load_low
 p188__load_low
 p189__load_low
 p190__load_low
 p191__load_low
 p192__load_low
 p193__load_low
 p194__load_low
 p195__load_low
 p196__load_low
 p197__load_low
 p198__load_low
 p199__load_low
 p200__load_low
 p201__load_low
 p202__load_low
 p203__load_low
 p204__load_low
 p205__load_low
 p206__load_low
 p207__load_low
 p208__load_low
 p209__load_low
 p210__load_low
 p211__load_low
 p212__load_low
 p213__load_low
 p214__load_low
 p215__load_low
 p216__load_low
 p217__load_low
 p218__load_low
 p219__load_low
 p220__load_low
 p221__load_low
 p222__load_low
 p223__load_low
 p224__load_low
 p225__load_low
 p226__load_low
 p227__load_low
 p228__load_low
 p229__load_low
 p230__load_low
 p231__load_low
 p232__load_low
 p233__load_low
 p234__load_low
 p235__load_low
 p236__load_low
 p237__load_low
 p238__load_low
 p239__load_low
 p240__load_low
 p241__load_low
 p242__load_low
 p243__load_low
 p244__load_low
 p245__load_low
 p246__load_low
 p247__load_low
 p248__load_low
 p249__load_low
 p250__load_low
 p251__load_low
 p252__load_low
 p253__load_low
 p254__load_low
 p255__load_low
 p256__load_low
 p1__load_high
 p2__load_high
 p3__load_high
 p4__load_high
 p5__load_high
 p6__load_high
 p7__load_high
 p8__load_high
 p9__load_high
 p10__load_high
 p11__load_high
 p12__load_high
 p13__load_high
 p14__load_high
 p15__load_high
 p16__load_high
 p17__load_high
 p18__load_high
 p19__load_high
 p20__load_high
 p21__load_high
 p22__load_high
 p23__load_high
 p24__load_high
 p25__load_high
 p26__load_high
 p27__load_high
 p28__load_high
 p29__load_high
 p30__load_high
 p31__load_high
 p32__load_high
 p33__load_high
 p34__load_high
 p35__load_high
 p36__load_high
 p37__load_high
 p38__load_high
 p39__load_high
 p40__load_high
 p41__load_high
 p42__load_high
 p43__load_high
 p44__load_high
 p45__load_high
 p46__load_high
 p47__load_high
 p48__load_high
 p49__load_high
 p50__load_high
 p51__load_high
 p52__load_high
 p53__load_high
 p54__load_high
 p55__load_high
 p56__load_high
 p57__load_high
 p58__load_high
 p59__load_high
 p60__load_high
 p61__load_high
 p62__load_high
 p63__load_high
 p64__load_high
 p65__load_high
 p66__load_high
 p67__load_high
 p68__load_high
 p69__load_high
 p70__load_high
 p71__load_high
 p72__load_high
 p73__load_high
 p74__load_high
 p75__load_high
 p76__load_high
 p77__load_high
 p78__load_high
 p79__load_high
 p80__load_high
 p81__load_high
 p82__load_high
 p83__load_high
 p84__load_high
 p85__load_high
 p86__load_high
 p87__load_high
 p88__load_high
 p89__load_high
 p90__load_high
 p91__load_high
 p92__load_high
 p93__load_high
 p94__load_high
 p95__load_high
 p96__load_high
 p97__load_high
 p98__load_high
 p99__load_high
 p100__load_high
 p101__load_high
 p102__load_high
 p103__load_high
 p104__load_high
 p105__load_high
 p106__load_high
 p107__load_high
 p108__load_high
 p109__load_high
 p110__load_high
 p111__load_high
 p112__load_high
 p113__load_high
 p114__load_high
 p115__load_high
 p116__load_high
 p117__load_high
 p118__load_high
 p119__load_high
 p120__load_high
 p121__load_high
 p122__load_high
 p123__load_high
 p124__load_high
 p125__load_high
 p126__load_high
 p127__load_high
 p128__load_high
 p129__load_high
 p130__load_high
 p131__load_high
 p132__load_high
 p133__load_high
 p134__load_high
 p135__load_high
 p136__load_high
 p137__load_high
 p138__load_high
 p139__load_high
 p140__load_high
 p141__load_high
 p142__load_high
 p143__load_high
 p144__load_high
 p145__load_high
 p146__load_high
 p147__load_high
 p148__load_high
 p149__load_high
 p150__load_high
 p151__load_high
 p152__load_high
 p153__load_high
 p154__load_high
 p155__load_high
 p156__load_high
 p157__load_high
 p158__load_high
 p159__load_high
 p160__load_high
 p161__load_high
 p162__load_high
 p163__load_high
 p164__load_high
 p165__load_high
 p166__load_high
 p167__load_high
 p168__load_high
 p169__load_high
 p170__load_high
 p171__load_high
 p172__load_high
 p173__load_high
 p174__load_high
 p175__load_high
 p176__load_high
 p177__load_high
 p178__load_high
 p179__load_high
 p180__load_high
 p181__load_high
 p182__load_high
 p183__load_high
 p184__load_high
 p185__load_high
 p186__load_high
 p187__load_high
 p188__load_high
 p189__load_high
 p190__load_high
 p191__load_high
 p192__load_high
 p193__load_high
 p194__load_high
 p195__load_high
 p196__load_high
 p197__load_high
 p198__load_high
 p199__load_high
 p200__load_high
 p201__load_high
 p202__load_high
 p203__load_high
 p204__load_high
 p205__load_high
 p206__load_high
 p207__load_high
 p208__load_high
 p209__load_high
 p210__load_high
 p211__load_high
 p212__load_high
 p213__load_high
 p214__load_high
 p215__load_high
 p216__load_high
 p217__load_high
 p218__load_high
 p219__load_high
 p220__load_high
 p221__load_high
 p222__load_high
 p223__load_high
 p224__load_high
 p225__load_high
 p226__load_high
 p227__load_high
 p228__load_high
 p229__load_high
 p230__load_high
 p231__load_high
 p232__load_high
 p233__load_high
 p234__load_high
 p235__load_high
 p236__load_high
 p237__load_high
 p238__load_high
 p239__load_high
 p240__load_high
 p241__load_high
 p242__load_high
 p243__load_high
 p244__load_high
 p245__load_high
 p246__load_high
 p247__load_high
 p248__load_high
 p249__load_high
 p250__load_high
 p251__load_high
 p252__load_high
 p253__load_high
 p254__load_high
 p255__load_high
 p256__load_high
End
