\ Boolean forbidden-tuple encoding
Minimize
 obj: 0
Subject To
 c0_load_low__t1: p1__load_low >= 1
 c1_load_low__t2: - p2__load_low >= 0
 c2_load_low__t3: - p3__load_low >= 0
 c3_load_low__t4: - p4__load_low >= 0
 c4_load_low__t5: - p5__load_low >= 0
 c5_load_low__t6: - p6__load_low >= 0
 c6_load_low__t7: - p7__load_low >= 0
 c7_load_low__t8: - p8__load_low >= 0
 c8_load_low__t9: - p9__load_low >= 0
 c9_load_low__t10: - p10__load_low >= 0
 c10_load_low__t11: - p11__load_low >= 0
 c11_load_low__t12: - p12__load_low >= 0
 c12_load_low__t13: - p13__load_low >= 0
 c13_load_low__t14: - p14__load_low >= 0
 c14_load_low__t15: - p15__load_low >= 0
 c15_load_low__t16: - p16__load_low >= 0
 c16_load_low__t17: - p17__load_low >= 0
 c17_load_low__t18: - p18__load_low >= 0
 c18_load_low__t19: - p19__load_low >= 0
 c19_load_low__t20: - p20__load_low >= 0
 c20_load_low__t21: - p21__load_low >= 0
 c21_load_low__t22: - p22__load_low >= 0
 c22_load_low__t23: - p23__load_low >= 0
 c23_load_low__t24: - p24__load_low >= 0
 c24_load_low__t25: - p25__load_low >= 0
 c25_load_low__t26: - p26__load_low >= 0
 c26_load_low__t27: - p27__load_low >= 0
 c27_load_low__t28: - p28__load_low >= 0
 c28_load_low__t29: - p29__load_low >= 0
 c29_load_low__t30: - p30__load_low >= 0
 c30_load_low__t31: - p31__load_low >= 0
 c31_load_low__t32: - p32__load_low >= 0
 c32_load_low__t33: - p33__load_low >= 0
 c33_load_low__t34: - p34__load_low >= 0
 c34_load_low__t35: - p35__load_low >= 0
 c35_load_low__t36: - p36__load_low >= 0
 c36_load_low__t37: - p37__load_low >= 0
 c37_load_low__t38: - p38__load_low >= 0
 c38_load_low__t39: - p39__load_low >= 0
 c39_load_low__t40: - p40__load_low >= 0
 c40_load_low__t41: - p41__load_low >= 0
 c41_load_low__t42: - p42__load_low >= 0
 c42_load_low__t43: - p43__load_low >= 0
 c43_load_low__t44: - p44__load_low >= 0
 c44_load_low__t45: - p45__load_low >= 0
 c45_load_low__t46: - p46__load_low >= 0
 c46_load_low__t47: - p47__load_low >= 0
 c47_load_low__t48: - p48__load_low >= 0
 c48_load_low__t49: - p49__load_low >= 0
 c49_load_low__t50: - p50__load_low >= 0
 c50_load_low__t51: - p51__load_low >= 0
 c51_load_low__t52: - p52__load_low >= 0
 c52_load_low__t53: - p53__load_low >= 0
 c53_load_low__t54: - p54__load_low >= 0
 c54_load_low__t55: - p55__load_low >= 0
 c55_load_low__t56: - p56__load_low >= 0
 c56_load_low__t57: - p57__load_low >= 0
 c57_load_low__t58: - p58__load_low >= 0
 c58_load_low__t59: - p59__load_low >= 0
 c59_load_low__t60: - p60__load_low >= 0
 c60_load_low__t61: - p61__load_low >= 0
 c61_load_low__t62: - p62__load_low >= 0
 c62_load_low__t63: - p63__load_low >= 0
 c63_load_low__t64: - p64__load_low >= 0
 c64_load_low__t65: - p65__load_low >= 0
 c65_load_low__t66: - p66__load_low >= 0
 c66_load_low__t67: - p67__load_low >= 0
 c67_load_low__t68: - p68__load_low >= 0
 c68_load_low__t69: - p69__load_low >= 0
 c69_load_low__t70: - p70__load_low >= 0
 c70_load_low__t71: - p71__load_low >= 0
 c71_load_low__t72: - p72__load_low >= 0
 c72_load_low__t73: - p73__load_low >= 0
 c73_load_low__t74: - p74__load_low >= 0
 c74_load_low__t75: - p75__load_low >= 0
 c75_load_low__t76: - p76__load_low >= 0
 c76_load_low__t77: - p77__load_low >= 0
 c77_load_low__t78: - p78__load_low >= 0
 c78_load_low__t79: - p79__load_low >= 0
 c79_load_low__t80: - p80__load_low >= 0
 c80_load_low__t81: - p81__load_low >= 0
 c81_load_low__t82: - p82__load_low >= 0
 c82_load_low__t83: - p83__load_low >= 0
 c83_load_low__t84: - p84__load_low >= 0
 c84_load_low__t85: - p85__load_low >= 0
 c85_load_low__t86: - p86__load_low >= 0
 c86_load_low__t87: - p87__load_low >= 0
 c87_load_low__t88: - p88__load_low >= 0
 c88_load_low__t89: - p89__load_low >= 0
 c89_load_low__t90: - p90__load_low >= 0
 c90_load_low__t91: - p91__load_low >= 0
 c91_load_low__t92: - p92__load_low >= 0
 c92_load_low__t93: - p93__load_low >= 0
 c93_load_low__t94: - p94__load_low >= 0
 c94_load_low__t95: - p95__load_low >= 0
 c95_load_low__t96: - p96__load_low >= 0
 c96_load_low__t97: - p97__load_low >= 0
 c97_load_low__t98: - p98__load_low >= 0
 c98_load_low__t99: - p99__load_low >= 0
 c99_load_low__t100: - p100__load_low >= 0
 c100_load_low__t101: - p101__load_low >= 0
 c101_load_low__t102: - p102__load_low >= 0
 c102_load_low__t103: - p103__load_low >= 0
 c103_load_low__t104: - p104__load_low >= 0
 c104_load_low__t105: - p105__load_low >= 0
 c105_load_low__t106: - p106__load_low >= 0
 c106_load_low__t107: - p107__load_low >= 0
 c107_load_low__t108: - p108__load_low >= 0
 c108_load_low__t109: - p109__load_low >= 0
 c109_load_low__t110: - p110__load_low >= 0
 c110_load_low__t111: - p111__load_low >= 0
 c111_load_low__t112: - p112__load_low >= 0
 c112_load_low__t113: - p113__load_low >= 0
 c113_load_low__t114: - p114__load_low >= 0
 c114_load_low__t115: - p115__load_low >= 0
 c115_load_low__t116: - p116__load_low >= 0
 c116_load_low__t117: - p117__load_low >= 0
 c117_load_low__t118: - p118__load_low >= 0
 c118_load_low__t119: - p119__load_low >= 0
 c119_load_low__t120: - p120__load_low >= 0
 c120_load_low__t121: - p121__load_low >= 0
 c121_load_low__t122: - p122__load_low >= 0
 c122_load_low__t123: - p123__load_low >= 0
 c123_load_low__t124: - p124__load_low >= 0
 c124_load_low__t125: - p125__load_low >= 0
 c125_load_low__t126: - p126__load_low >= 0
 c126_load_low__t127: - p127__load_low >= 0
 c127_load_low__t128: - p128__load_low >= 0
 c128_load_low__t129: - p129__load_low >= 0
 c129_load_low__t130: - p130__load_low >= 0
 c130_load_low__t131: - p131__load_low >= 0
 c131_load_low__t132: - p132__load_low >= 0
 c132_load_low__t133: - p133__load_low >= 0
 c133_load_low__t134: - p134__load_low >= 0
 c134_load_low__t135: - p135__load_low >= 0
 c135_load_low__t136: - p136__load_low >= 0
 c136_load_low__t137: - p137__load_low >= 0
 c137_load_low__t138: - p138__load_low >= 0
 c138_load_low__t139: - p139__load_low >= 0
 c139_load_low__t140: - p140__load_low >= 0
 c140_load_low__t141: - p141__load_low >= 0
 c141_load_low__t142: - p142__load_low >= 0
 c142_load_low__t143: - p143__load_low >= 0
 c143_load_low__t144: - p144__load_low >= 0
 c144_load_low__t145: - p145__load_low >= 0
 c145_load_low__t146: - p146__load_low >= 0
 c146_load_low__t147: - p147__load_low >= 0
 c147_load_low__t148: - p148__load_low >= 0
 c148_load_low__t149: - p149__load_low >= 0
 c149_load_low__t150: - p150__load_low >= 0
 c150_load_low__t151: - p151__load_low >= 0
 c151_load_low__t152: - p152__load_low >= 0
 c152_load_low__t153: - p153__load_low >= 0
 c153_load_low__t154: - p154__load_low >= 0
 c154_load_low__t155: - p155__load_low >= 0
 c155_load_low__t156: - p156__load_low >= 0
 c156_load_low__t157: - p157__load_low >= 0
 c157_load_low__t158: - p158__load_low >= 0
 c158_load_low__t159: - p159__load_low >= 0
 c159_load_low__t160: - p160__load_low >= 0
 c160_load_low__t161: - p161__load_low >= 0
 c161_load_low__t162: - p162__load_low >= 0
 c162_load_low__t163: - p163__load_low >= 0
 c163_load_low__t164: - p164__load_low >= 0
 c164_load_low__t165: - p165__load_low >= 0
 c165_load_low__t166: - p166__load_low >= 0
 c166_load_low__t167: - p167__load_low >= 0
 c167_load_low__t168: - p168__load_low >= 0
 c168_load_low__t169: - p169__load_low >= 0
 c169_load_low__t170: - p170__load_low >= 0
 c170_load_low__t171: - p171__load_low >= 0
 c171_load_low__t172: - p172__load_low >= 0
 c172_load_low__t173: - p173__load_low >= 0
 c173_load_low__t174: - p174__load_low >= 0
 c174_load_low__t175: - p175__load_low >= 0
 c175_load_low__t176: - p176__load_low >= 0
 c176_load_low__t177: - p177__load_low >= 0
 c177_load_low__t178: - p178__load_low >= 0
 c178_load_low__t179: - p179__load_low >= 0
 c179_load_low__t180: - p180__load_low >= 0
 c180_load_low__t181: - p181__load_low >= 0
 c181_load_low__t182: - p182__load_low >= 0
 c182_load_low__t183: - p183__load_low >= 0
 c183_load_low__t184: - p184__load_low >= 0
 c184_load_low__t185: - p185__load_low >= 0
 c185_load_low__t186: - p186__load_low >= 0
 c186_load_low__t187: - p187__load_low >= 0
 c187_load_low__t188: - p188__load_low >= 0
 c188_load_low__t189: - p189__load_low >= 0
 c189_load_low__t190: - p190__load_low >= 0
 c190_load_low__t191: - p191__load_low >= 0
 c191_load_low__t192: - p192__load_low >= 0
 c192_load_low__t193: - p193__load_low >= 0
 c193_load_low__t194: - p194__load_low >= 0
 c194_load_low__t195: - p195__load_low >= 0
 c195_load_low__t196: - p196__load_low >= 0
 c196_load_low__t197: - p197__load_low >= 0
 c197_load_low__t198: - p198__load_low >= 0
 c198_load_low__t199: - p199__load_low >= 0
 c199_load_low__t200: - p200__load_low >= 0
 c200_load_low__t201: - p201__load_low >= 0
 c201_load_low__t202: - p202__load_low >= 0
 c202_load_low__t203: - p203__load_low >= 0
 c203_load_low__t204: - p204__load_low >= 0
 c204_load_low__t205: - p205__load_low >= 0
 c205_load_low__t206: - p206__load_low >= 0
 c206_load_low__t207: - p207__load_low >= 0
 c207_load_low__t208: - p208__load_low >= 0
 c208_load_low__t209: - p209__load_low >= 0
 c209_load_low__t210: - p210__load_low >= 0
 c210_load_low__t211: - p211__load_low >= 0
 c211_load_low__t212: - p212__load_low >= 0
 c212_load_low__t213: - p213__load_low >= 0
 c213_load_low__t214: - p214__load_low >= 0
 c214_load_low__t215: - p215__load_low >= 0
 c215_load_low__t216: - p216__load_low >= 0
 c216_load_low__t217: - p217__load_low >= 0
 c217_load_low__t218: - p218__load_low >= 0
 c218_load_low__t219: - p219__load_low >= 0
 c219_load_low__t220: - p220__load_low >= 0
 c220_load_low__t221: - p221__load_low >= 0
 c221_load_low__t222: - p222__load_low >= 0
 c222_load_low__t223: - p223__load_low >= 0
 c223_load_low__t224: - p224__load_low >= 0
 c224_load_low__t225: - p225__load_low >= 0
 c225_load_low__t226: - p226__load_low >= 0
 c226_load_low__t227: - p227__load_low >= 0
 c227_load_low__t228: - p228__load_low >= 0
 c228_load_low__t229: - p229__load_low >= 0
 c229_load_low__t230: - p230__load_low >= 0
 c230_load_low__t231: - p231__load_low >= 0
 c231_load_low__t232: - p232__load_low >= 0
 c232_load_low__t233: - p233__load_low >= 0
 c233_load_low__t234: - p234__load_low >= 0
 c234_load_low__t235: - p235__load_low >= 0
 c235_load_low__t236: - p236__load_low >= 0
 c236_load_low__t237: - p237__load_low >= 0
 c237_load_low__t238: - p238__load_low >= 0
 c238_load_low__t239: - p239__load_low >= 0
 c239_load_low__t240: - p240__load_low >= 0
 c240_load_low__t241: - p241__load_low >= 0
 c241_load_low__t242: - p242__load_low >= 0
 c242_load_low__t243: - p243__load_low >= 0
 c243_load_low__t244: - p244__load_low >= 0
 c244_load_low__t245: - p245__load_low >= 0
 c245_load_low__t246: - p246__load_low >= 0
 c246_load_low__t247: - p247__load_low >= 0
 c247_load_low__t248: - p248__load_low >= 0
 c248_load_low__t249: - p249__load_low >= 0
 c249_load_low__t250: - p250__load_low >= 0
 c250_load_low__t251: - p251__load_low >= 0
 c251_load_low__t252: - p252__load_low >= 0
 c252_load_low__t253: - p253__load_low >= 0
 c253_load_low__t254: - p254__load_low >= 0
 c254_load_low__t255: - p255__load_low >= 0
 c255_load_low__t256: - p256__load_low >= 0
 c256_load_low__t257: - p257__load_low >= 0
 c257_load_low__t258: - p258__load_low >= 0
 c258_load_low__t259: - p259__load_low >= 0
 c259_load_low__t260: - p260__load_low >= 0
 c260_load_low__t261: - p261__load_low >= 0
 c261_load_low__t262: - p262__load_low >= 0
 c262_load_low__t263: - p263__load_low >= 0
 c263_load_low__t264: - p264__load_low >= 0
 c264_load_low__t265: - p265__load_low >= 0
 c265_load_low__t266: - p266__load_low >= 0
 c266_load_low__t267: - p267__load_low >= 0
 c267_load_low__t268: - p268__load_low >= 0
 c268_load_low__t269: - p269__load_low >= 0
 c269_load_low__t270: - p270__load_low >= 0
 c270_load_low__t271: - p271__load_low >= 0
 c271_load_low__t272: - p272__load_low >= 0
 c272_load_low__t273: - p273__load_low >= 0
 c273_load_low__t274: - p274__load_low >= 0
 c274_load_low__t275: - p275__load_low >= 0
 c275_load_low__t276: - p276__load_low >= 0
 c276_load_low__t277: - p277__load_low >= 0
 c277_load_low__t278: - p278__load_low >= 0
 c278_load_low__t279: - p279__load_low >= 0
 c279_load_low__t280: - p280__load_low >= 0
 c280_load_low__t281: - p281__load_low >= 0
 c281_load_low__t282: - p282__load_low >= 0
 c282_load_low__t283: - p283__load_low >= 0
 c283_load_low__t284: - p284__load_low >= 0
 c284_load_low__t285: - p285__load_low >= 0
 c285_load_low__t286: - p286__load_low >= 0
 c286_load_low__t287: - p287__load_low >= 0
 c287_load_low__t288: - p288__load_low >= 0
 c288_load_low__t289: - p289__load_low >= 0
 c289_load_low__t290: - p290__load_low >= 0
 c290_load_low__t291: - p291__load_low >= 0
 c291_load_low__t292: - p292__load_low >= 0
 c292_load_low__t293: - p293__load_low >= 0
 c293_load_low__t294: - p294__load_low >= 0
 c294_load_low__t295: - p295__load_low >= 0
 c295_load_low__t296: - p296__load_low >= 0
 c296_load_low__t297: - p297__load_low >= 0
 c297_load_low__t298: - p298__load_low >= 0
 c298_load_low__t299: - p299__load_low >= 0
 c299_load_low__t300: - p300__load_low >= 0
 c300_load_low__t301: - p301__load_low >= 0
 c301_load_low__t302: - p302__load_low >= 0
 c302_load_low__t303: - p303__load_low >= 0
 c303_load_low__t304: - p304__load_low >= 0
 c304_load_low__t305: - p305__load_low >= 0
 c305_load_low__t306: - p306__load_low >= 0
 c306_load_low__t307: - p307__load_low >= 0
 c307_load_low__t308: - p308__load_low >= 0
 c308_load_low__t309: - p309__load_low >= 0
 c309_load_low__t310: - p310__load_low >= 0
 c310_load_low__t311: - p311__load_low >= 0
 c311_load_low__t312: - p312__load_low >= 0
 c312_load_low__t313: - p313__load_low >= 0
 c313_load_low__t314: - p314__load_low >= 0
 c314_load_low__t315: - p315__load_low >= 0
 c315_load_low__t316: - p316__load_low >= 0
 c316_load_low__t317: - p317__load_low >= 0
 c317_load_low__t318: - p318__load_low >= 0
 c318_load_low__t319: - p319__load_low >= 0
 c319_load_low__t320: - p320__load_low >= 0
 c320_load_low__t321: - p321__load_low >= 0
 c321_load_low__t322: - p322__load_low >= 0
 c322_load_low__t323: - p323__load_low >= 0
 c323_load_low__t324: - p324__load_low >= 0
 c324_load_low__t325: - p325__load_low >= 0
 c325_load_low__t326: - p326__load_low >= 0
 c326_load_low__t327: - p327__load_low >= 0
 c327_load_low__t328: - p328__load_low >= 0
 c328_load_low__t329: - p329__load_low >= 0
 c329_load_low__t330: - p330__load_low >= 0
 c330_load_low__t331: - p331__load_low >= 0
 c331_load_low__t332: - p332__load_low >= 0
 c332_load_low__t333: - p333__load_low >= 0
 c333_load_low__t334: - p334__load_low >= 0
 c334_load_low__t335: - p335__load_low >= 0
 c335_load_low__t336: - p336__load_low >= 0
 c336_load_low__t337: - p337__load_low >= 0
 c337_load_low__t338: - p338__load_low >= 0
 c338_load_low__t339: - p339__load_low >= 0
 c339_load_low__t340: - p340__load_low >= 0
 c340_load_low__t341: - p341__load_low >= 0
 c341_load_low__t342: - p342__load_low >= 0
 c342_load_low__t343: - p343__load_low >= 0
 c343_load_low__t344: - p344__load_low >= 0
 c344_load_low__t345: - p345__load_low >= 0
 c345_load_low__t346: - p346__load_low >= 0
 c346_load_low__t347: - p347__load_low >= 0
 c347_load_low__t348: - p348__load_low >= 0
 c348_load_low__t349: - p349__load_low >= 0
 c349_load_low__t350: - p350__load_low >= 0
 c350_load_low__t351: - p351__load_low >= 0
 c351_load_low__t352: - p352__load_low >= 0
 c352_load_low__t353: - p353__load_low >= 0
 c353_load_low__t354: - p354__load_low >= 0
 c354_load_low__t355: - p355__load_low >= 0
 c355_load_low__t356: - p356__load_low >= 0
 c356_load_low__t357: - p357__load_low >= 0
 c357_load_low__t358: - p358__load_low >= 0
 c358_load_low__t359: - p359__load_low >= 0
 c359_load_low__t360: - p360__load_low >= 0
 c360_load_low__t361: - p361__load_low >= 0
 c361_load_low__t362: - p362__load_low >= 0
 c362_load_low__t363: - p363__load_low >= 0
 c363_load_low__t364: - p364__load_low >= 0
 c364_load_low__t365: - p365__load_low >= 0
 c365_load_low__t366: - p366__load_low >= 0
 c366_load_low__t367: - p367__load_low >= 0
 c367_load_low__t368: - p368__load_low >= 0
 c368_load_low__t369: - p369__load_low >= 0
 c369_load_low__t370: - p370__load_low >= 0
 c370_load_low__t371: - p371__load_low >= 0
 c371_load_low__t372: - p372__load_low >= 0
 c372_load_low__t373: - p373__load_low >= 0
 c373_load_low__t374: - p374__load_low >= 0
 c374_load_low__t375: - p375__load_low >= 0
 c375_load_low__t376: - p376__load_low >= 0
 c376_load_low__t377: - p377__load_low >= 0
 c377_load_low__t378: - p378__load_low >= 0
 c378_load_low__t379: - p379__load_low >= 0
 c379_load_low__t380: - p380__load_low >= 0
 c380_load_low__t381: - p381__load_low >= 0
 c381_load_low__t382: - p382__load_low >= 0
 c382_load_low__t383: - p383__load_low >= 0
 c383_load_low__t384: - p384__load_low >= 0
 c384_load_low__t385: - p385__load_low >= 0
 c385_load_low__t386: - p386__load_low >= 0
 c386_load_low__t387: - p387__load_low >= 0
 c387_load_low__t388: - p388__load_low >= 0
 c388_load_low__t389: - p389__load_low >= 0
 c389_load_low__t390: - p390__load_low >= 0
 c390_load_low__t391: - p391__load_low >= 0
 c391_load_low__t392: - p392__load_low >= 0
 c392_load_low__t393: - p393__load_low >= 0
 c393_load_low__t394: - p394__load_low >= 0
 c394_load_low__t395: - p395__load_low >= 0
 c395_load_low__t396: - p396__load_low >= 0
 c396_load_low__t397: - p397__load_low >= 0
 c397_load_low__t398: - p398__load_low >= 0
 c398_load_low__t399: - p399__load_low >= 0
 c399_load_low__t400: - p400__load_low >= 0
 c400_load_low__t401: - p401__load_low >= 0
 c401_load_low__t402: - p402__load_low >= 0
 c402_load_low__t403: - p403__load_low >= 0
 c403_load_low__t404: - p404__load_low >= 0
 c404_load_low__t405: - p405__load_low >= 0
 c405_load_low__t406: - p406__load_low >= 0
 c406_load_low__t407: - p407__load_low >= 0
 c407_load_low__t408: - p408__load_low >= 0
 c408_load_low__t409: - p409__load_low >= 0
 c409_load_low__t410: - p410__load_low >= 0
 c410_load_low__t411: - p411__load_low >= 0
 c411_load_low__t412: - p412__load_low >= 0
 c412_load_low__t413: - p413__load_low >= 0
 c413_load_low__t414: - p414__load_low >= 0
 c414_load_low__t415: - p415__load_low >= 0
 c415_load_low__t416: - p416__load_low >= 0
 c416_load_low__t417: - p417__load_low >= 0
 c417_load_low__t418: - p418__load_low >= 0
 c418_load_low__t419: - p419__load_low >= 0
 c419_load_low__t420: - p420__load_low >= 0
 c420_load_low__t421: - p421__load_low >= 0
 c421_load_low__t422: - p422__load_low >= 0
 c422_load_low__t423: - p423__load_low >= 0
 c423_load_low__t424: - p424__load_low >= 0
 c424_load_low__t425: - p425__load_low >= 0
 c425_load_low__t426: - p426__load_low >= 0
 c426_load_low__t427: - p427__load_low >= 0
 c427_load_low__t428: - p428__load_low >= 0
 c428_load_low__t429: - p429__load_low >= 0
 c429_load_low__t430: - p430__load_low >= 0
 c430_load_low__t431: - p431__load_low >= 0
 c431_load_low__t432: - p432__load_low >= 0
 c432_load_low__t433: - p433__load_low >= 0
 c433_load_low__t434: - p434__load_low >= 0
 c434_load_low__t435: - p435__load_low >= 0
 c435_load_low__t436: - p436__load_low >= 0
 c436_load_low__t437: - p437__load_low >= 0
 c437_load_low__t438: - p438__load_low >= 0
 c438_load_low__t439: - p439__load_low >= 0
 c439_load_low__t440: - p440__load_low >= 0
 c440_load_low__t441: - p441__load_low >= 0
 c441_load_low__t442: - p442__load_low >= 0
 c442_load_low__t443: - p443__load_low >= 0
 c443_load_low__t444: - p444__load_low >= 0
 c444_load_low__t445: - p445__load_low >= 0
 c445_load_low__t446: - p446__load_low >= 0
 c446_load_low__t447: - p447__load_low >= 0
 c447_load_low__t448: - p448__load_low >= 0
 c448_load_low__t449: - p449__load_low >= 0
 c449_load_low__t450: - p450__load_low >= 0
 c450_load_low__t451: - p451__load_low >= 0
 c451_load_low__t452: - p452__load_low >= 0
 c452_load_low__t453: - p453__load_low >= 0
 c453_load_low__t454: - p454__load_low >= 0
 c454_load_low__t455: - p455__load_low >= 0
 c455_load_low__t456: - p456__load_low >= 0
 c456_load_low__t457: - p457__load_low >= 0
 c457_load_low__t458: - p458__load_low >= 0
 c458_load_low__t459: - p459__load_low >= 0
 c459_load_low__t460: - p460__load_low >= 0
 c460_load_low__t461: - p461__load_low >= 0
 c461_load_low__t462: - p462__load_low >= 0
 c462_load_low__t463: - p463__load_low >= 0
 c463_load_low__t464: - p464__load_low >= 0
 c464_load_low__t465: - p465__load_low >= 0
 c465_load_low__t466: - p466__load_low >= 0
 c466_load_low__t467: - p467__load_low >= 0
 c467_load_low__t468: - p468__load_low >= 0
 c468_load_low__t469: - p469__load_low >= 0
 c469_load_low__t470: - p470__load_low >= 0
 c470_load_low__t471: - p471__load_low >= 0
 c471_load_low__t472: - p472__load_low >= 0
 c472_load_low__t473: - p473__load_low >= 0
 c473_load_low__t474: - p474__load_low >= 0
 c474_load_low__t475: - p475__load_low >= 0
 c475_load_low__t476: - p476__load_low >= 0
 c476_load_low__t477: - p477__load_low >= 0
 c477_load_low__t478: - p478__load_low >= 0
 c478_load_low__t479: - p479__load_low >= 0
 c479_load_low__t480: - p480__load_low >= 0
 c480_load_low__t481: - p481__load_low >= 0
 c481_load_low__t482: - p482__load_low >= 0
 c482_load_low__t483: - p483__load_low >= 0
 c483_load_low__t484: - p484__load_low >= 0
 c484_load_low__t485: - p485__load_low >= 0
 c485_load_low__t486: - p486__load_low >= 0
 c486_load_low__t487: - p487__load_low >= 0
 c487_load_low__t488: - p488__load_low >= 0
 c488_load_low__t489: - p489__load_low >= 0
 c489_load_low__t490: - p490__load_low >= 0
 c490_load_low__t491: - p491__load_low >= 0
 c491_load_low__t492: - p492__load_low >= 0
 c492_load_low__t493: - p493__load_low >= 0
 c493_load_low__t494: - p494__load_low >= 0
 c494_load_low__t495: - p495__load_low >= 0
 c495_load_low__t496: - p496__load_low >= 0
 c496_load_low__t497: - p497__load_low >= 0
 c497_load_low__t498: - p498__load_low >= 0
 c498_load_low__t499: - p499__load_low >= 0
 c499_load_low__t500: - p500__load_low >= 0
 c500_load_low__t501: - p501__load_low >= 0
 c501_load_low__t502: - p502__load_low >= 0
 c502_load_low__t503: - p503__load_low >= 0
 c503_load_low__t504: - p504__load_low >= 0
 c504_load_low__t505: - p505__load_low >= 0
 c505_load_low__t506: - p506__load_low >= 0
 c506_load_low__t507: - p507__load_low >= 0
 c507_load_low__t508: - p508__load_low >= 0
 c508_load_low__t509: - p509__load_low >= 0
 c509_load_low__t510: - p510__load_low >= 0
 c510_load_low__t511: - p511__load_low >= 0
 c511_load_low__t512: - p512__load_low >= 0
 c512_load_low__t513: - p513__load_low >= 0
 c513_load_low__t514: - p514__load_low >= 0
 c514_load_low__t515: - p515__load_low >= 0
 c515_load_low__t516: - p516__load_low >= 0
 c516_load_low__t517: - p517__load_low >= 0
 c517_load_low__t518: - p518__load_low >= 0
 c518_load_low__t519: - p519__load_low >= 0
 c519_load_low__t520: - p520__load_low >= 0
 c520_load_low__t521: - p521__load_low >= 0
 c521_load_low__t522: - p522__load_low >= 0
 c522_load_low__t523: - p523__load_low >= 0
 c523_load_low__t524: - p524__load_low >= 0
 c524_load_low__t525: - p525__load_low >= 0
 c525_load_low__t526: - p526__load_low >= 0
 c526_load_low__t527: - p527__load_low >= 0
 c527_load_low__t528: - p528__load_low >= 0
 c528_load_low__t529: - p529__load_low >= 0
 c529_load_low__t530: - p530__load_low >= 0
 c530_load_low__t531: - p531__load_low >= 0
 c531_load_low__t532: - p532__load_low >= 0
 c532_load_low__t533: - p533__load_low >= 0
 c533_load_low__t534: - p534__load_low >= 0
 c534_load_low__t535: - p535__load_low >= 0
 c535_load_low__t536: - p536__load_low >= 0
 c536_load_low__t537: - p537__load_low >= 0
 c537_load_low__t538: - p538__load_low >= 0
 c538_load_low__t539: - p539__load_low >= 0
 c539_load_low__t540: - p540__load_low >= 0
 c540_load_low__t541: - p541__load_low >= 0
 c541_load_low__t542: - p542__load_low >= 0
 c542_load_low__t543: - p543__load_low >= 0
 c543_load_low__t544: - p544__load_low >= 0
 c544_load_low__t545: - p545__load_low >= 0
 c545_load_low__t546: - p546__load_low >= 0
 c546_load_low__t547: - p547__load_low >= 0
 c547_load_low__t548: - p548__load_low >= 0
 c548_load_low__t549: - p549__load_low >= 0
 c549_load_low__t550: - p550__load_low >= 0
 c550_load_low__t551: - p551__load_low >= 0
 c551_load_low__t552: - p552__load_low >= 0
 c552_load_low__t553: - p553__load_low >= 0
 c553_load_low__t554: - p554__load_low >= 0
 c554_load_low__t555: - p555__load_low >= 0
 c555_load_low__t556: - p556__load_low >= 0
 c556_load_low__t557: - p557__load_low >= 0
 c557_load_low__t558: - p558__load_low >= 0
 c558_load_low__t559: - p559__load_low >= 0
 c559_load_low__t560: - p560__load_low >= 0
 c560_load_low__t561: - p561__load_low >= 0
 c561_load_low__t562: - p562__load_low >= 0
 c562_load_low__t563: - p563__load_low >= 0
 c563_load_low__t564: - p564__load_low >= 0
 c564_load_low__t565: - p565__load_low >= 0
 c565_load_low__t566: - p566__load_low >= 0
 c566_load_low__t567: - p567__load_low >= 0
 c567_load_low__t568: - p568__load_low >= 0
 c568_load_low__t569: - p569__load_low >= 0
 c569_load_low__t570: - p570__load_low >= 0
 c570_load_low__t571: - p571__load_low >= 0
 c571_load_low__t572: - p572__load_low >= 0
 c572_load_low__t573: - p573__load_low >= 0
 c573_load_low__t574: - p574__load_low >= 0
 c574_load_low__t575: - p575__load_low >= 0
 c575_load_low__t576: - p576__load_low >= 0
 c576_load_low__t577: - p577__load_low >= 0
 c577_load_low__t578: - p578__load_low >= 0
 c578_load_low__t579: - p579__load_low >= 0
 c579_load_low__t580: - p580__load_low >= 0
 c580_load_low__t581: - p581__load_low >= 0
 c581_load_low__t582: - p582__load_low >= 0
 c582_load_low__t583: - p583__load_low >= 0
 c583_load_low__t584: - p584__load_low >= 0
 c584_load_low__t585: - p585__load_low >= 0
 c585_load_low__t586: - p586__load_low >= 0
 c586_load_low__t587: - p587__load_low >= 0
 c587_load_low__t588: - p588__load_low >= 0
 c588_load_low__t589: - p589__load_low >= 0
 c589_load_low__t590: - p590__load_low >= 0
 c590_load_low__t591: - p591__load_low >= 0
 c591_load_low__t592: - p592__load_low >= 0
 c592_load_low__t593: - p593__load_low >= 0
 c593_load_low__t594: - p594__load_low >= 0
 c594_load_low__t595: - p595__load_low >= 0
 c595_load_low__t596: - p596__load_low >= 0
 c596_load_low__t597: - p597__load_low >= 0
 c597_load_low__t598: - p598__load_low >= 0
 c598_load_low__t599: - p599__load_low >= 0
 c599_load_low__t600: - p600__load_low >= 0
 c600_load_low__t601: - p601__load_low >= 0
 c601_load_low__t602: - p602__load_low >= 0
 c602_load_low__t603: - p603__load_low >= 0
 c603_load_low__t604: - p604__load_low >= 0
 c604_load_low__t605: - p605__load_low >= 0
 c605_load_low__t606: - p606__load_low >= 0
 c606_load_low__t607: - p607__load_low >= 0
 c607_load_low__t608: - p608__load_low >= 0
 c608_load_low__t609: - p609__load_low >= 0
 c609_load_low__t610: - p610__load_low >= 0
 c610_load_low__t611: - p611__load_low >= 0
 c611_load_low__t612: - p612__load_low >= 0
 c612_load_low__t613: - p613__load_low >= 0
 c613_load_low__t614: - p614__load_low >= 0
 c614_load_low__t615: - p615__load_low >= 0
 c615_load_low__t616: - p616__load_low >= 0
 c616_load_low__t617: - p617__load_low >= 0
 c617_load_low__t618: - p618__load_low >= 0
 c618_load_low__t619: - p619__load_low >= 0
 c619_load_low__t620: - p620__load_low >= 0
 c620_load_low__t621: - p621__load_low >= 0
 c621_load_low__t622: - p622__load_low >= 0
 c622_load_low__t623: - p623__load_low >= 0
 c623_load_low__t624: - p624__load_low >= 0
 c624_load_low__t625: - p625__load_low >= 0
 c625_load_low__t626: - p626__load_low >= 0
 c626_load_low__t627: - p627__load_low >= 0
 c627_load_low__t628: - p628__load_low >= 0
 c628_load_low__t629: - p629__load_low >= 0
 c629_load_low__t630: - p630__load_low >= 0
 c630_load_low__t631: - p631__load_low >= 0
 c631_load_low__t632: - p632__load_low >= 0
 c632_load_low__t633: - p633__load_low >= 0
 c633_load_low__t634: - p634__load_low >= 0
 c634_load_low__t635: - p635__load_low >= 0
 c635_load_low__t636: - p636__load_low >= 0
 c636_load_low__t637: - p637__load_low >= 0
 c637_load_low__t638: - p638__load_low >= 0
 c638_load_low__t639: - p639__load_low >= 0
 c639_load_low__t640: - p640__load_low >= 0
 c640_load_low__t641: - p641__load_low >= 0
 c641_load_low__t642: - p642__load_low >= 0
 c642_load_low__t643: - p643__load_low >= 0
 c643_load_low__t644: - p644__load_low >= 0
 c644_load_low__t645: - p645__load_low >= 0
 c645_load_low__t646: - p646__load_low >= 0
 c646_load_low__t647: - p647__load_low >= 0
 c647_load_low__t648: - p648__load_low >= 0
 c648_load_low__t649: - p649__load_low >= 0
 c649_load_low__t650: - p650__load_low >= 0
 c650_load_low__t651: - p651__load_low >= 0
 c651_load_low__t652: - p652__load_low >= 0
 c652_load_low__t653: - p653__load_low >= 0
 c653_load_low__t654: - p654__load_low >= 0
 c654_load_low__t655: - p655__load_low >= 0
 c655_load_low__t656: - p656__load_low >= 0
 c656_load_low__t657: - p657__load_low >= 0
 c657_load_low__t658: - p658__load_low >= 0
 c658_load_low__t659: - p659__load_low >= 0
 c659_load_low__t660: - p660__load_low >= 0
 c660_load_low__t661: - p661__load_low >= 0
 c661_load_low__t662: - p662__load_low >= 0
 c662_load_low__t663: - p663__load_low >= 0
 c663_load_low__t664: - p664__load_low >= 0
 c664_load_low__t665: - p665__load_low >= 0
 c665_load_low__t666: - p666__load_low >= 0
 c666_load_low__t667: - p667__load_low >= 0
 c667_load_low__t668: - p668__load_low >= 0
 c668_load_low__t669: - p669__load_low >= 0
 c669_load_low__t670: - p670__load_low >= 0
 c670_load_low__t671: - p671__load_low >= 0
 c671_load_low__t672: - p672__load_low >= 0
 c672_load_low__t673: - p673__load_low >= 0
 c673_load_low__t674: - p674__load_low >= 0
 c674_load_low__t675: - p675__load_low >= 0
 c675_load_low__t676: - p676__load_low >= 0
 c676_load_low__t677: - p677__load_low >= 0
 c677_load_low__t678: - p678__load_low >= 0
 c678_load_low__t679: - p679__load_low >= 0
 c679_load_low__t680: - p680__load_low >= 0
 c680_load_low__t681: - p681__load_low >= 0
 c681_load_low__t682: - p682__load_low >= 0
 c682_load_low__t683: - p683__load_low >= 0
 c683_load_low__t684: - p684__load_low >= 0
 c684_load_low__t685: - p685__load_low >= 0
 c685_load_low__t686: - p686__load_low >= 0
 c686_load_low__t687: - p687__load_low >= 0
 c687_load_low__t688: - p688__load_low >= 0
 c688_load_low__t689: - p689__load_low >= 0
 c689_load_low__t690: - p690__load_low >= 0
 c690_load_low__t691: - p691__load_low >= 0
 c691_load_low__t692: - p692__load_low >= 0
 c692_load_low__t693: - p693__load_low >= 0
 c693_load_low__t694: - p694__load_low >= 0
 c694_load_low__t695: - p695__load_low >= 0
 c695_load_low__t696: - p696__load_low >= 0
 c696_load_low__t697: - p697__load_low >= 0
 c697_load_low__t698: - p698__load_low >= 0
 c698_load_low__t699: - p699__load_low >= 0
 c699_load_low__t700: - p700__load_low >= 0
 c700_load_low__t701: - p701__load_low >= 0
 c701_load_low__t702: - p702__load_low >= 0
 c702_load_low__t703: - p703__load_low >= 0
 c703_load_low__t704: - p704__load_low >= 0
 c704_load_low__t705: - p705__load_low >= 0
 c705_load_low__t706: - p706__load_low >= 0
 c706_load_low__t707: - p707__load_low >= 0
 c707_load_low__t708: - p708__load_low >= 0
 c708_load_low__t709: - p709__load_low >= 0
 c709_load_low__t710: - p710__load_low >= 0
 c710_load_low__t711: - p711__load_low >= 0
 c711_load_low__t712: - p712__load_low >= 0
 c712_load_low__t713: - p713__load_low >= 0
 c713_load_low__t714: - p714__load_low >= 0
 c714_load_low__t715: - p715__load_low >= 0
 c715_load_low__t716: - p716__load_low >= 0
 c716_load_low__t717: - p717__load_low >= 0
 c717_load_low__t718: - p718__load_low >= 0
 c718_load_low__t719: - p719__load_low >= 0
 c719_load_low__t720: - p720__load_low >= 0
 c720_load_low__t721: - p721__load_low >= 0
 c721_load_low__t722: - p722__load_low >= 0
 c722_load_low__t723: - p723__load_low >= 0
 c723_load_low__t724: - p724__load_low >= 0
 c724_load_low__t725: - p725__load_low >= 0
 c725_load_low__t726: - p726__load_low >= 0
 c726_load_low__t727: - p727__load_low >= 0
 c727_load_low__t728: - p728__load_low >= 0
 c728_load_low__t729: - p729__load_low >= 0
 c729_load_low__t730: - p730__load_low >= 0
 c730_load_low__t731: - p731__load_low >= 0
 c731_load_low__t732: - p732__load_low >= 0
 c732_load_low__t733: - p733__load_low >= 0
 c733_load_low__t734: - p734__load_low >= 0
 c734_load_low__t735: - p735__load_low >= 0
 c735_load_low__t736: - p736__load_low >= 0
 c736_load_low__t737: - p737__load_low >= 0
 c737_load_low__t738: - p738__load_low >= 0
 c738_load_low__t739: - p739__load_low >= 0
 c739_load_low__t740: - p740__load_low >= 0
 c740_load_low__t741: - p741__load_low >= 0
 c741_load_low__t742: - p742__load_low >= 0
 c742_load_low__t743: - p743__load_low >= 0
 c743_load_low__t744: - p744__load_low >= 0
 c744_load_low__t745: - p745__load_low >= 0
 c745_load_low__t746: - p746__load_low >= 0
 c746_load_low__t747: - p747__load_low >= 0
 c747_load_low__t748: - p748__load_low >= 0
 c748_load_low__t749: - p749__load_low >= 0
 c749_load_low__t750: - p750__load_low >= 0
 c750_load_low__t751: - p751__load_low >= 0
 c751_load_low__t752: - p752__load_low >= 0
 c752_load_low__t753: - p753__load_low >= 0
 c753_load_low__t754: - p754__load_low >= 0
 c754_load_low__t755: - p755__load_low >= 0
 c755_load_low__t756: - p756__load_low >= 0
 c756_load_low__t757: - p757__load_low >= 0
 c757_load_low__t758: - p758__load_low >= 0
 c758_load_low__t759: - p759__load_low >= 0
 c759_load_low__t760: - p760__load_low >= 0
 c760_load_low__t761: - p761__load_low >= 0
 c761_load_low__t762: - p762__load_low >= 0
 c762_load_low__t763: - p763__load_low >= 0
 c763_load_low__t764: - p764__load_low >= 0
 c764_load_low__t765: - p765__load_low >= 0
 c765_load_low__t766: - p766__load_low >= 0
 c766_load_low__t767: - p767__load_low >= 0
 c767_load_low__t768: - p768__load_low >= 0
 c768_load_low__t769: - p769__load_low >= 0
 c769_load_low__t770: - p770__load_low >= 0
 c770_load_low__t771: - p771__load_low >= 0
 c771_load_low__t772: - p772__load_low >= 0
 c772_load_low__t773: - p773__load_low >= 0
 c773_load_low__t774: - p774__load_low >= 0
 c774_load_low__t775: - p775__load_low >= 0
 c775_load_low__t776: - p776__load_low >= 0
 c776_load_low__t777: - p777__load_low >= 0
 c777_load_low__t778: - p778__load_low >= 0
 c778_load_low__t779: - p779__load_low >= 0
 c779_load_low__t780: - p780__load_low >= 0
 c780_load_low__t781: - p781__load_low >= 0
 c781_load_low__t782: - p782__load_low >= 0
 c782_load_low__t783: - p783__load_low >= 0
 c783_load_low__t784: - p784__load_low >= 0
 c784_load_low__t785: - p785__load_low >= 0
 c785_load_low__t786: - p786__load_low >= 0
 c786_load_low__t787: - p787__load_low >= 0
 c787_load_low__t788: - p788__load_low >= 0
 c788_load_low__t789: - p789__load_low >= 0
 c789_load_low__t790: - p790__load_low >= 0
 c790_load_low__t791: - p791__load_low >= 0
 c791_load_low__t792: - p792__load_low >= 0
 c792_load_low__t793: - p793__load_low >= 0
 c793_load_low__t794: - p794__load_low >= 0
 c794_load_low__t795: - p795__load_low >= 0
 c795_load_low__t796: - p796__load_low >= 0
 c796_load_low__t797: - p797__load_low >= 0
 c797_load_low__t798: - p798__load_low >= 0
 c798_load_low__t799: - p799__load_low >= 0
 c799_load_low__t800: - p800__load_low >= 0
 c800_load_low__t801: - p801__load_low >= 0
 c801_load_low__t802: - p802__load_low >= 0
 c802_load_low__t803: - p803__load_low >= 0
 c803_load_low__t804: - p804__load_low >= 0
 c804_load_low__t805: - p805__load_low >= 0
 c805_load_low__t806: - p806__load_low >= 0
 c806_load_low__t807: - p807__load_low >= 0
 c807_load_low__t808: - p808__load_low >= 0
 c808_load_low__t809: - p809__load_low >= 0
 c809_load_low__t810: - p810__load_low >= 0
 c810_load_low__t811: - p811__load_low >= 0
 c811_load_low__t812: - p812__load_low >= 0
 c812_load_low__t813: - p813__load_low >= 0
 c813_load_low__t814: - p814__load_low >= 0
 c814_load_low__t815: - p815__load_low >= 0
 c815_load_low__t816: - p816__load_low >= 0
 c816_load_low__t817: - p817__load_low >= 0
 c817_load_low__t818: - p818__load_low >= 0
 c818_load_low__t819: - p819__load_low >= 0
 c819_load_low__t820: - p820__load_low >= 0
 c820_load_low__t821: - p821__load_low >= 0
 c821_load_low__t822: - p822__load_low >= 0
 c822_load_low__t823: - p823__load_low >= 0
 c823_load_low__t824: - p824__load_low >= 0
 c824_load_low__t825: - p825__load_low >= 0
 c825_load_low__t826: - p826__load_low >= 0
 c826_load_low__t827: - p827__load_low >= 0
 c827_load_low__t828: - p828__load_low >= 0
 c828_load_low__t829: - p829__load_low >= 0
 c829_load_low__t830: - p830__load_low >= 0
 c830_load_low__t831: - p831__load_low >= 0
 c831_load_low__t832: - p832__load_low >= 0
 c832_load_low__t833: - p833__load_low >= 0
 c833_load_low__t834: - p834__load_low >= 0
 c834_load_low__t835: - p835__load_low >= 0
 c835_load_low__t836: - p836__load_low >= 0
 c836_load_low__t837: - p837__load_low >= 0
 c837_load_low__t838: - p838__load_low >= 0
 c838_load_low__t839: - p839__load_low >= 0
 c839_load_low__t840: - p840__load_low >= 0
 c840_load_low__t841: - p841__load_low >= 0
 c841_load_low__t842: - p842__load_low >= 0
 c842_load_low__t843: - p843__load_low >= 0
 c843_load_low__t844: - p844__load_low >= 0
 c844_load_low__t845: - p845__load_low >= 0
 c845_load_low__t846: - p846__load_low >= 0
 c846_load_low__t847: - p847__load_low >= 0
 c847_load_low__t848: - p848__load_low >= 0
 c848_load_low__t849: - p849__load_low >= 0
 c849_load_low__t850: - p850__load_low >= 0
 c850_load_low__t851: - p851__load_low >= 0
 c851_load_low__t852: - p852__load_low >= 0
 c852_load_low__t853: - p853__load_low >= 0
 c853_load_low__t854: - p854__load_low >= 0
 c854_load_low__t855: - p855__load_low >= 0
 c855_load_low__t856: - p856__load_low >= 0
 c856_load_low__t857: - p857__load_low >= 0
 c857_load_low__t858: - p858__load_low >= 0
 c858_load_low__t859: - p859__load_low >= 0
 c859_load_low__t860: - p860__load_low >= 0
 c860_load_low__t861: - p861__load_low >= 0
 c861_load_low__t862: - p862__load_low >= 0
 c862_load_low__t863: - p863__load_low >= 0
 c863_load_low__t864: - p864__load_low >= 0
 c864_load_low__t865: - p865__load_low >= 0
 c865_load_low__t866: - p866__load_low >= 0
 c866_load_low__t867: - p867__load_low >= 0
 c867_load_low__t868: - p868__load_low >= 0
 c868_load_low__t869: - p869__load_low >= 0
 c869_load_low__t870: - p870__load_low >= 0
 c870_load_low__t871: - p871__load_low >= 0
 c871_load_low__t872: - p872__load_low >= 0
 c872_load_low__t873: - p873__load_low >= 0
 c873_load_low__t874: - p874__load_low >= 0
 c874_load_low__t875: - p875__load_low >= 0
 c875_load_low__t876: - p876__load_low >= 0
 c876_load_low__t877: - p877__load_low >= 0
 c877_load_low__t878: - p878__load_low >= 0
 c878_load_low__t879: - p879__load_low >= 0
 c879_load_low__t880: - p880__load_low >= 0
 c880_load_low__t881: - p881__load_low >= 0
 c881_load_low__t882: - p882__load_low >= 0
 c882_load_low__t883: - p883__load_low >= 0
 c883_load_low__t884: - p884__load_low >= 0
 c884_load_low__t885: - p885__load_low >= 0
 c885_load_low__t886: - p886__load_low >= 0
 c886_load_low__t887: - p887__load_low >= 0
 c887_load_low__t888: - p888__load_low >= 0
 c888_load_low__t889: - p889__load_low >= 0
 c889_load_low__t890: - p890__load_low >= 0
 c890_load_low__t891: - p891__load_low >= 0
 c891_load_low__t892: - p892__load_low >= 0
 c892_load_low__t893: - p893__load_low >= 0
 c893_load_low__t894: - p894__load_low >= 0
 c894_load_low__t895: - p895__load_low >= 0
 c895_load_low__t896: - p896__load_low >= 0
 c896_load_low__t897: - p897__load_low >= 0
 c897_load_low__t898: - p898__load_low >= 0
 c898_load_low__t899: - p899__load_low >= 0
 c899_load_low__t900: - p900__load_low >= 0
 c900_load_low__t901: - p901__load_low >= 0
 c901_load_low__t902: - p902__load_low >= 0
 c902_load_low__t903: - p903__load_low >= 0
 c903_load_low__t904: - p904__load_low >= 0
 c904_load_low__t905: - p905__load_low >= 0
 c905_load_low__t906: - p906__load_low >= 0
 c906_load_low__t907: - p907__load_low >= 0
 c907_load_low__t908: - p908__load_low >= 0
 c908_load_low__t909: - p909__load_low >= 0
 c909_load_low__t910: - p910__load_low >= 0
 c910_load_low__t911: - p911__load_low >= 0
 c911_load_low__t912: - p912__load_low >= 0
 c912_load_low__t913: - p913__load_low >= 0
 c913_load_low__t914: - p914__load_low >= 0
 c914_load_low__t915: - p915__load_low >= 0
 c915_load_low__t916: - p916__load_low >= 0
 c916_load_low__t917: - p917__load_low >= 0
 c917_load_low__t918: - p918__load_low >= 0
 c918_load_low__t919: - p919__load_low >= 0
 c919_load_low__t920: - p920__load_low >= 0
 c920_load_low__t921: - p921__load_low >= 0
 c921_load_low__t922: - p922__load_low >= 0
 c922_load_low__t923: - p923__load_low >= 0
 c923_load_low__t924: - p924__load_low >= 0
 c924_load_low__t925: - p925__load_low >= 0
 c925_load_low__t926: - p926__load_low >= 0
 c926_load_low__t927: - p927__load_low >= 0
 c927_load_low__t928: - p928__load_low >= 0
 c928_load_low__t929: - p929__load_low >= 0
 c929_load_low__t930: - p930__load_low >= 0
 c930_load_low__t931: - p931__load_low >= 0
 c931_load_low__t932: - p932__load_low >= 0
 c932_load_low__t933: - p933__load_low >= 0
 c933_load_low__t934: - p934__load_low >= 0
 c934_load_low__t935: - p935__load_low >= 0
 c935_load_low__t936: - p936__load_low >= 0
 c936_load_low__t937: - p937__load_low >= 0
 c937_load_low__t938: - p938__load_low >= 0
 c938_load_low__t939: - p939__load_low >= 0
 c939_load_low__t940: - p940__load_low >= 0
 c940_load_low__t941: - p941__load_low >= 0
 c941_load_low__t942: - p942__load_low >= 0
 c942_load_low__t943: - p943__load_low >= 0
 c943_load_low__t944: - p944__load_low >= 0
 c944_load_low__t945: - p945__load_low >= 0
 c945_load_low__t946: - p946__load_low >= 0
 c946_load_low__t947: - p947__load_low >= 0
 c947_load_low__t948: - p948__load_low >= 0
 c948_load_low__t949: - p949__load_low >= 0
 c949_load_low__t950: - p950__load_low >= 0
 c950_load_low__t951: - p951__load_low >= 0
 c951_load_low__t952: - p952__load_low >= 0
 c952_load_low__t953: - p953__load_low >= 0
 c953_load_low__t954: - p954__load_low >= 0
 c954_load_low__t955: - p955__load_low >= 0
 c955_load_low__t956: - p956__load_low >= 0
 c956_load_low__t957: - p957__load_low >= 0
 c957_load_low__t958: - p958__load_low >= 0
 c958_load_low__t959: - p959__load_low >= 0
 c959_load_low__t960: - p960__load_low >= 0
 c960_load_low__t961: - p961__load_low >= 0
 c961_load_low__t962: - p962__load_low >= 0
 c962_load_low__t963: - p963__load_low >= 0
 c963_load_low__t964: - p964__load_low >= 0
 c964_load_low__t965: - p965__load_low >= 0
 c965_load_low__t966: - p966__load_low >= 0
 c966_load_low__t967: - p967__load_low >= 0
 c967_load_low__t968: - p968__load_low >= 0
 c968_load_low__t969: - p969__load_low >= 0
 c969_load_low__t970: - p970__load_low >= 0
 c970_load_low__t971: - p971__load_low >= 0
 c971_load_low__t972: - p972__load_low >= 0
 c972_load_low__t973: - p973__load_low >= 0
 c973_load_low__t974: - p974__load_low >= 0
 c974_load_low__t975: - p975__load_low >= 0
 c975_load_low__t976: - p976__load_low >= 0
 c976_load_low__t977: - p977__load_low >= 0
 c977_load_low__t978: - p978__load_low >= 0
 c978_load_low__t979: - p979__load_low >= 0
 c979_load_low__t980: - p980__load_low >= 0
 c980_load_low__t981: - p981__load_low >= 0
 c981_load_low__t982: - p982__load_low >= 0
 c982_load_low__t983: - p983__load_low >= 0
 c983_load_low__t984: - p984__load_low >= 0
 c984_load_low__t985: - p985__load_low >= 0
 c985_load_low__t986: - p986__load_low >= 0
 c986_load_low__t987: - p987__load_low >= 0
 c987_load_low__t988: - p988__load_low >= 0
 c988_load_low__t989: - p989__load_low >= 0
 c989_load_low__t990: - p990__load_low >= 0
 c990_load_low__t991: - p991__load_low >= 0
 c991_load_low__t992: - p992__load_low >= 0
 c992_load_low__t993: - p993__load_low >= 0
 c993_load_low__t994: - p994__load_low >= 0
 c994_load_low__t995: - p995__load_low >= 0
 c995_load_low__t996: - p996__load_low >= 0
 c996_load_low__t997: - p997__load_low >= 0
 c997_load_low__t998: - p998__load_low >= 0
 c998_load_low__t999: - p999__load_low >= 0
 c999_load_low__t1000: - p1000__load_low >= 0
 c1000_load_low__t1001: - p1001__load_low >= 0
 c1001_load_low__t1002: - p1002__load_low >= 0
 c1002_load_low__t1003: - p1003__load_low >= 0
 c1003_load_low__t1004: - p1004__load_low >= 0
 c1004_load_low__t1005: - p1005__load_low >= 0
 c1005_load_low__t1006: - p1006__load_low >= 0
 c1006_load_low__t1007: - p1007__load_low >= 0
 c1007_load_low__t1008: - p1008__load_low >= 0
 c1008_load_low__t1009: - p1009__load_low >= 0
 c1009_load_low__t1010: - p1010__load_low >= 0
 c1010_load_low__t1011: - p1011__load_low >= 0
 c1011_load_low__t1012: - p1012__load_low >= 0
 c1012_load_low__t1013: - p1013__load_low >= 0
 c1013_load_low__t1014: - p1014__load_low >= 0
 c1014_load_low__t1015: - p1015__load_low >= 0
 c1015_load_low__t1016: - p1016__load_low >= 0
 c1016_load_low__t1017: - p1017__load_low >= 0
 c1017_load_low__t1018: - p1018__load_low >= 0
 c1018_load_low__t1019: - p1019__load_low >= 0
 c1019_load_low__t1020: - p1020__load_low >= 0
 c1020_load_low__t1021: - p1021__load_low >= 0
 c1021_load_low__t1022: - p1022__load_low >= 0
 c1022_load_low__t1023: - p1023__load_low >= 0
 c1023_load_low__t1024: - p1024__load_low >= 0
 c1024_load_high__t1: p1__load_high >= 1
 c1025_load_high__t2: p2__load_high >= 1
 c1026_load_high__t3: p3__load_high >= 1
 c1027_load_high__t4: p4__load_high >= 1
 c1028_load_high__t5: p5__load_high >= 1
 c1029_load_high__t6: p6__load_high >= 1
 c1030_load_high__t7: p7__load_high >= 1
 c1031_load_high__t8: p8__load_high >= 1
 c1032_load_high__t9: p9__load_high >= 1
 c1033_load_high__t10: p10__load_high >= 1
 c1034_load_high__t11: p11__load_high >= 1
 c1035_load_high__t12: p12__load_high >= 1
 c1036_load_high__t13: p13__load_high >= 1
 c1037_load_high__t14: p14__load_high >= 1
 c1038_load_high__t15: p15__load_high >= 1
 c1039_load_high__t16: p16__load_high >= 1
 c1040_load_high__t17: p17__load_high >= 1
 c1041_load_high__t18: p18__load_high >= 1
 c1042_load_high__t19: p19__load_high >= 1
 c1043_load_high__t20: p20__load_high >= 1
 c1044_load_high__t21: p21__load_high >= 1
 c1045_load_high__t22: p22__load_high >= 1
 c1046_load_high__t23: p23__load_high >= 1
 c1047_load_high__t24: p24__load_high >= 1
 c1048_load_high__t25: p25__load_high >= 1
 c1049_load_high__t26: p26__load_high >= 1
 c1050_load_high__t27: p27__load_high >= 1
 c1051_load_high__t28: p28__load_high >= 1
 c1052_load_high__t29: p29__load_high >= 1
 c1053_load_high__t30: p30__load_high >= 1
 c1054_load_high__t31: p31__load_high >= 1
 c1055_load_high__t32: p32__load_high >= 1
 c1056_load_high__t33: p33__load_high >= 1
 c1057_load_high__t34: p34__load_high >= 1
 c1058_load_high__t35: p35__load_high >= 1
 c1059_load_high__t36: p36__load_high >= 1
 c1060_load_high__t37: p37__load_high >= 1
 c1061_load_high__t38: p38__load_high >= 1
 c1062_load_high__t39: p39__load_high >= 1
 c1063_load_high__t40: p40__load_high >= 1
 c1064_load_high__t41: p41__load_high >= 1
 c1065_load_high__t42: p42__load_high >= 1
 c1066_load_high__t43: p43__load_high >= 1
 c1067_load_high__t44: p44__load_high >= 1
 c1068_load_high__t45: p45__load_high >= 1
 c1069_load_high__t46: p46__load_high >= 1
 c1070_load_high__t47: p47__load_high >= 1
 c1071_load_high__t48: p48__load_high >= 1
 c1072_load_high__t49: p49__load_high >= 1
 c1073_load_high__t50: p50__load_high >= 1
 c1074_load_high__t51: p51__load_high >= 1
 c1075_load_high__t52: p52__load_high >= 1
 c1076_load_high__t53: p53__load_high >= 1
 c1077_load_high__t54: p54__load_high >= 1
 c1078_load_high__t55: p55__load_high >= 1
 c1079_load_high__t56: p56__load_high >= 1
 c1080_load_high__t57: p57__load_high >= 1
 c1081_load_high__t58: p58__load_high >= 1
 c1082_load_high__t59: p59__load_high >= 1
 c1083_load_high__t60: p60__load_high >= 1
 c1084_load_high__t61: p61__load_high >= 1
 c1085_load_high__t62: p62__load_high >= 1
 c1086_load_high__t63: p63__load_high >= 1
 c1087_load_high__t64: p64__load_high >= 1
 c1088_load_high__t65: p65__load_high >= 1
 c1089_load_high__t66: p66__load_high >= 1
 c1090_load_high__t67: p67__load_high >= 1
 c1091_load_high__t68: p68__load_high >= 1
 c1092_load_high__t69: p69__load_high >= 1
 c1093_load_high__t70: p70__load_high >= 1
 c1094_load_high__t71: p71__load_high >= 1
 c1095_load_high__t72: p72__load_high >= 1
 c1096_load_high__t73: p73__load_high >= 1
 c1097_load_high__t74: p74__load_high >= 1
 c1098_load_high__t75: p75__load_high >= 1
 c1099_load_high__t76: p76__load_high >= 1
 c1100_load_high__t77: p77__load_high >= 1
 c1101_load_high__t78: p78__load_high >= 1
 c1102_load_high__t79: p79__load_high >= 1
 c1103_load_high__t80: p80__load_high >= 1
 c1104_load_high__t81: p81__load_high >= 1
 c1105_load_high__t82: p82__load_high >= 1
 c1106_load_high__t83: p83__load_high >= 1
 c1107_load_high__t84: p84__load_high >= 1
 c1108_load_high__t85: p85__load_high >= 1
 c1109_load_high__t86: p86__load_high >= 1
 c1110_load_high__t87: p87__load_high >= 1
 c1111_load_high__t88: p88__load_high >= 1
 c1112_load_high__t89: p89__load_high >= 1
 c1113_load_high__t90: p90__load_high >= 1
 c1114_load_high__t91: p91__load_high >= 1
 c1115_load_high__t92: p92__load_high >= 1
 c1116_load_high__t93: p93__load_high >= 1
 c1117_load_high__t94: p94__load_high >= 1
 c1118_load_high__t95: p95__load_high >= 1
 c1119_load_high__t96: p96__load_high >= 1
 c1120_load_high__t97: p97__load_high >= 1
 c1121_load_high__t98: p98__load_high >= 1
 c1122_load_high__t99: p99__load_high >= 1
 c1123_load_high__t100: p100__load_high >= 1
 c1124_load_high__t101: p101__load_high >= 1
 c1125_load_high__t102: p102__load_high >= 1
 c1126_load_high__t103: p103__load_high >= 1
 c1127_load_high__t104: p104__load_high >= 1
 c1128_load_high__t105: p105__load_high >= 1
 c1129_load_high__t106: p106__load_high >= 1
 c1130_load_high__t107: p107__load_high >= 1
 c1131_load_high__t108: p108__load_high >= 1
 c1132_load_high__t109: p109__load_high >= 1
 c1133_load_high__t110: p110__load_high >= 1
 c1134_load_high__t111: p111__load_high >= 1
 c1135_load_high__t112: p112__load_high >= 1
 c1136_load_high__t113: p113__load_high >= 1
 c1137_load_high__t114: p114__load_high >= 1
 c1138_load_high__t115: p115__load_high >= 1
 c1139_load_high__t116: p116__load_high >= 1
 c1140_load_high__t117: p117__load_high >= 1
 c1141_load_high__t118: p118__load_high >= 1
 c1142_load_high__t119: p119__load_high >= 1
 c1143_load_high__t120: p120__load_high >= 1
 c1144_load_high__t121: p121__load_high >= 1
 c1145_load_high__t122: p122__load_high >= 1
 c1146_load_high__t123: p123__load_high >= 1
 c1147_load_high__t124: p124__load_high >= 1
 c1148_load_high__t125: p125__load_high >= 1
 c1149_load_high__t126: p126__load_high >= 1
 c1150_load_high__t127: p127__load_high >= 1
 c1151_load_high__t128: p128__load_high >= 1
 c1152_load_high__t129: p129__load_high >= 1
 c1153_load_high__t130: p130__load_high >= 1
 c1154_load_high__t131: p131__load_high >= 1
 c1155_load_high__t132: p132__load_high >= 1
 c1156_load_high__t133: p133__load_high >= 1
 c1157_load_high__t134: p134__load_high >= 1
 c1158_load_high__t135: p135__load_high >= 1
 c1159_load_high__t136: p136__load_high >= 1
 c1160_load_high__t137: p137__load_high >= 1
 c1161_load_high__t138: p138__load_high >= 1
 c1162_load_high__t139: p139__load_high >= 1
 c1163_load_high__t140: p140__load_high >= 1
 c1164_load_high__t141: p141__load_high >= 1
 c1165_load_high__t142: p142__load_high >= 1
 c1166_load_high__t143: p143__load_high >= 1
 c1167_load_high__t144: p144__load_high >= 1
 c1168_load_high__t145: p145__load_high >= 1
 c1169_load_high__t146: p146__load_high >= 1
 c1170_load_high__t147: p147__load_high >= 1
 c1171_load_high__t148: p148__load_high >= 1
 c1172_load_high__t149: p149__load_high >= 1
 c1173_load_high__t150: p150__load_high >= 1
 c1174_load_high__t151: p151__load_high >= 1
 c1175_load_high__t152: p152__load_high >= 1
 c1176_load_high__t153: p153__load_high >= 1
 c1177_load_high__t154: p154__load_high >= 1
 c1178_load_high__t155: p155__load_high >= 1
 c1179_load_high__t156: p156__load_high >= 1
 c1180_load_high__t157: p157__load_high >= 1
 c1181_load_high__t158: p158__load_high >= 1
 c1182_load_high__t159: p159__load_high >= 1
 c1183_load_high__t160: p160__load_high >= 1
 c1184_load_high__t161: p161__load_high >= 1
 c1185_load_high__t162: p162__load_high >= 1
 c1186_load_high__t163: p163__load_high >= 1
 c1187_load_high__t164: p164__load_high >= 1
 c1188_load_high__t165: p165__load_high >= 1
 c1189_load_high__t166: p166__load_high >= 1
 c1190_load_high__t167: p167__load_high >= 1
 c1191_load_high__t168: p168__load_high >= 1
 c1192_load_high__t169: p169__load_high >= 1
 c1193_load_high__t170: p170__load_high >= 1
 c1194_load_high__t171: p171__load_high >= 1
 c1195_load_high__t172: p172__load_high >= 1
 c1196_load_high__t173: p173__load_high >= 1
 c1197_load_high__t174: p174__load_high >= 1
 c1198_load_high__t175: p175__load_high >= 1
 c1199_load_high__t176: p176__load_high >= 1
 c1200_load_high__t177: p177__load_high >= 1
 c1201_load_high__t178: p178__load_high >= 1
 c1202_load_high__t179: p179__load_high >= 1
 c1203_load_high__t180: p180__load_high >= 1
 c1204_load_high__t181: p181__load_high >= 1
 c1205_load_high__t182: p182__load_high >= 1
 c1206_load_high__t183: p183__load_high >= 1
 c1207_load_high__t184: p184__load_high >= 1
 c1208_load_high__t185: p185__load_high >= 1
 c1209_load_high__t186: p186__load_high >= 1
 c1210_load_high__t187: p187__load_high >= 1
 c1211_load_high__t188: p188__load_high >= 1
 c1212_load_high__t189: p189__load_high >= 1
 c1213_load_high__t190: p190__load_high >= 1
 c1214_load_high__t191: p191__load_high >= 1
 c1215_load_high__t192: p192__load_high >= 1
 c1216_load_high__t193: p193__load_high >= 1
 c1217_load_high__t194: p194__load_high >= 1
 c1218_load_high__t195: p195__load_high >= 1
 c1219_load_high__t196: p196__load_high >= 1
 c1220_load_high__t197: p197__load_high >= 1
 c1221_load_high__t198: p198__load_high >= 1
 c1222_load_high__t199: p199__load_high >= 1
 c1223_load_high__t200: p200__load_high >= 1
 c1224_load_high__t201: p201__load_high >= 1
 c1225_load_high__t202: p202__load_high >= 1
 c1226_load_high__t203: p203__load_high >= 1
 c1227_load_high__t204: p204__load_high >= 1
 c1228_load_high__t205: p205__load_high >= 1
 c1229_load_high__t206: p206__load_high >= 1
 c1230_load_high__t207: p207__load_high >= 1
 c1231_load_high__t208: p208__load_high >= 1
 c1232_load_high__t209: p209__load_high >= 1
 c1233_load_high__t210: p210__load_high >= 1
 c1234_load_high__t211: p211__load_high >= 1
 c1235_load_high__t212: p212__load_high >= 1
 c1236_load_high__t213: p213__load_high >= 1
 c1237_load_high__t214: p214__load_high >= 1
 c1238_load_high__t215: p215__load_high >= 1
 c1239_load_high__t216: p216__load_high >= 1
 c1240_load_high__t217: p217__load_high >= 1
 c1241_load_high__t218: p218__load_high >= 1
 c1242_load_high__t219: p219__load_high >= 1
 c1243_load_high__t220: p220__load_high >= 1
 c1244_load_high__t221: p221__load_high >= 1
 c1245_load_high__t222: p222__load_high >= 1
 c1246_load_high__t223: p223__load_high >= 1
 c1247_load_high__t224: p224__load_high >= 1
 c1248_load_high__t225: p225__load_high >= 1
 c1249_load_high__t226: p226__load_high >= 1
 c1250_load_high__t227: p227__load_high >= 1
 c1251_load_high__t228: p228__load_high >= 1
 c1252_load_high__t229: p229__load_high >= 1
 c1253_load_high__t230: p230__load_high >= 1
 c1254_load_high__t231: p231__load_high >= 1
 c1255_load_high__t232: p232__load_high >= 1
 c1256_load_high__t233: p233__load_high >= 1
 c1257_load_high__t234: p234__load_high >= 1
 c1258_load_high__t235: p235__load_high >= 1
 c1259_load_high__t236: p236__load_high >= 1
 c1260_load_high__t237: p237__load_high >= 1
 c1261_load_high__t238: p238__load_high >= 1
 c1262_load_high__t239: p239__load_high >= 1
 c1263_load_high__t240: p240__load_high >= 1
 c1264_load_high__t241: p241__load_high >= 1
 c1265_load_high__t242: p242__load_high >= 1
 c1266_load_high__t243: p243__load_high >= 1
 c1267_load_high__t244: p244__load_high >= 1
 c1268_load_high__t245: p245__load_high >= 1
 c1269_load_high__t246: p246__load_high >= 1
 c1270_load_high__t247: p247__load_high >= 1
 c1271_load_high__t248: p248__load_high >= 1
 c1272_load_high__t249: p249__load_high >= 1
 c1273_load_high__t250: p250__load_high >= 1
 c1274_load_high__t251: p251__load_high >= 1
 c1275_load_high__t252: p252__load_high >= 1
 c1276_load_high__t253: p253__load_high >= 1
 c1277_load_high__t254: p254__load_high >= 1
 c1278_load_high__t255: p255__load_high >= 1
 c1279_load_high__t256: p256__load_high >= 1
 c1280_load_high__t257: p257__load_high >= 1
 c1281_load_high__t258: p258__load_high >= 1
 c1282_load_high__t259: p259__load_high >= 1
 c1283_load_high__t260: p260__load_high >= 1
 c1284_load_high__t261: p261__load_high >= 1
 c1285_load_high__t262: p262__load_high >= 1
 c1286_load_high__t263: p263__load_high >= 1
 c1287_load_high__t264: p264__load_high >= 1
 c1288_load_high__t265: p265__load_high >= 1
 c1289_load_high__t266: p266__load_high >= 1
 c1290_load_high__t267: p267__load_high >= 1
 c1291_load_high__t268: p268__load_high >= 1
 c1292_load_high__t269: p269__load_high >= 1
 c1293_load_high__t270: p270__load_high >= 1
 c1294_load_high__t271: p271__load_high >= 1
 c1295_load_high__t272: p272__load_high >= 1
 c1296_load_high__t273: p273__load_high >= 1
 c1297_load_high__t274: p274__load_high >= 1
 c1298_load_high__t275: p275__load_high >= 1
 c1299_load_high__t276: p276__load_high >= 1
 c1300_load_high__t277: p277__load_high >= 1
 c1301_load_high__t278: p278__load_high >= 1
 c1302_load_high__t279: p279__load_high >= 1
 c1303_load_high__t280: p280__load_high >= 1
 c1304_load_high__t281: p281__load_high >= 1
 c1305_load_high__t282: p282__load_high >= 1
 c1306_load_high__t283: p283__load_high >= 1
 c1307_load_high__t284: p284__load_high >= 1
 c1308_load_high__t285: p285__load_high >= 1
 c1309_load_high__t286: p286__load_high >= 1
 c1310_load_high__t287: p287__load_high >= 1
 c1311_load_high__t288: p288__load_high >= 1
 c1312_load_high__t289: p289__load_high >= 1
 c1313_load_high__t290: p290__load_high >= 1
 c1314_load_high__t291: p291__load_high >= 1
 c1315_load_high__t292: p292__load_high >= 1
 c1316_load_high__t293: p293__load_high >= 1
 c1317_load_high__t294: p294__load_high >= 1
 c1318_load_high__t295: p295__load_high >= 1
 c1319_load_high__t296: p296__load_high >= 1
 c1320_load_high__t297: p297__load_high >= 1
 c1321_load_high__t298: p298__load_high >= 1
 c1322_load_high__t299: p299__load_high >= 1
 c1323_load_high__t300: p300__load_high >= 1
 c1324_load_high__t301: p301__load_high >= 1
 c1325_load_high__t302: p302__load_high >= 1
 c1326_load_high__t303: p303__load_high >= 1
 c1327_load_high__t304: p304__load_high >= 1
 c1328_load_high__t305: p305__load_high >= 1
 c1329_load_high__t306: p306__load_high >= 1
 c1330_load_high__t307: p307__load_high >= 1
 c1331_load_high__t308: p308__load_high >= 1
 c1332_load_high__t309: p309__load_high >= 1
 c1333_load_high__t310: p310__load_high >= 1
 c1334_load_high__t311: p311__load_high >= 1
 c1335_load_high__t312: p312__load_high >= 1
 c1336_load_high__t313: p313__load_high >= 1
 c1337_load_high__t314: p314__load_high >= 1
 c1338_load_high__t315: p315__load_high >= 1
 c1339_load_high__t316: p316__load_high >= 1
 c1340_load_high__t317: p317__load_high >= 1
 c1341_load_high__t318: p318__load_high >= 1
 c1342_load_high__t319: p319__load_high >= 1
 c1343_load_high__t320: p320__load_high >= 1
 c1344_load_high__t321: p321__load_high >= 1
 c1345_load_high__t322: p322__load_high >= 1
 c1346_load_high__t323: p323__load_high >= 1
 c1347_load_high__t324: p324__load_high >= 1
 c1348_load_high__t325: p325__load_high >= 1
 c1349_load_high__t326: p326__load_high >= 1
 c1350_load_high__t327: p327__load_high >= 1
 c1351_load_high__t328: p328__load_high >= 1
 c1352_load_high__t329: p329__load_high >= 1
 c1353_load_high__t330: p330__load_high >= 1
 c1354_load_high__t331: p331__load_high >= 1
 c1355_load_high__t332: p332__load_high >= 1
 c1356_load_high__t333: p333__load_high >= 1
 c1357_load_high__t334: p334__load_high >= 1
 c1358_load_high__t335: p335__load_high >= 1
 c1359_load_high__t336: p336__load_high >= 1
 c1360_load_high__t337: p337__load_high >= 1
 c1361_load_high__t338: p338__load_high >= 1
 c1362_load_high__t339: p339__load_high >= 1
 c1363_load_high__t340: p340__load_high >= 1
 c1364_load_high__t341: p341__load_high >= 1
 c1365_load_high__t342: p342__load_high >= 1
 c1366_load_high__t343: p343__load_high >= 1
 c1367_load_high__t344: p344__load_high >= 1
 c1368_load_high__t345: p345__load_high >= 1
 c1369_load_high__t346: p346__load_high >= 1
 c1370_load_high__t347: p347__load_high >= 1
 c1371_load_high__t348: p348__load_high >= 1
 c1372_load_high__t349: p349__load_high >= 1
 c1373_load_high__t350: p350__load_high >= 1
 c1374_load_high__t351: p351__load_high >= 1
 c1375_load_high__t352: p352__load_high >= 1
 c1376_load_high__t353: p353__load_high >= 1
 c1377_load_high__t354: p354__load_high >= 1
 c1378_load_high__t355: p355__load_high >= 1
 c1379_load_high__t356: p356__load_high >= 1
 c1380_load_high__t357: p357__load_high >= 1
 c1381_load_high__t358: p358__load_high >= 1
 c1382_load_high__t359: p359__load_high >= 1
 c1383_load_high__t360: p360__load_high >= 1
 c1384_load_high__t361: p361__load_high >= 1
 c1385_load_high__t362: p362__load_high >= 1
 c1386_load_high__t363: p363__load_high >= 1
 c1387_load_high__t364: p364__load_high >= 1
 c1388_load_high__t365: p365__load_high >= 1
 c1389_load_high__t366: p366__load_high >= 1
 c1390_load_high__t367: p367__load_high >= 1
 c1391_load_high__t368: p368__load_high >= 1
 c1392_load_high__t369: p369__load_high >= 1
 c1393_load_high__t370: p370__load_high >= 1
 c1394_load_high__t371: p371__load_high >= 1
 c1395_load_high__t372: p372__load_high >= 1
 c1396_load_high__t373: p373__load_high >= 1
 c1397_load_high__t374: p374__load_high >= 1
 c1398_load_high__t375: p375__load_high >= 1
 c1399_load_high__t376: p376__load_high >= 1
 c1400_load_high__t377: p377__load_high >= 1
 c1401_load_high__t378: p378__load_high >= 1
 c1402_load_high__t379: p379__load_high >= 1
 c1403_load_high__t380: p380__load_high >= 1
 c1404_load_high__t381: p381__load_high >= 1
 c1405_load_high__t382: p382__load_high >= 1
 c1406_load_high__t383: p383__load_high >= 1
 c1407_load_high__t384: p384__load_high >= 1
 c1408_load_high__t385: p385__load_high >= 1
 c1409_load_high__t386: p386__load_high >= 1
 c1410_load_high__t387: p387__load_high >= 1
 c1411_load_high__t388: p388__load_high >= 1
 c1412_load_high__t389: p389__load_high >= 1
 c1413_load_high__t390: p390__load_high >= 1
 c1414_load_high__t391: p391__load_high >= 1
 c1415_load_high__t392: p392__load_high >= 1
 c1416_load_high__t393: p393__load_high >= 1
 c1417_load_high__t394: p394__load_high >= 1
 c1418_load_high__t395: p395__load_high >= 1
 c1419_load_high__t396: p396__load_high >= 1
 c1420_load_high__t397: p397__load_high >= 1
 c1421_load_high__t398: p398__load_high >= 1
 c1422_load_high__t399: p399__load_high >= 1
 c1423_load_high__t400: p400__load_high >= 1
 c1424_load_high__t401: p401__load_high >= 1
 c1425_load_high__t402: p402__load_high >= 1
 c1426_load_high__t403: p403__load_high >= 1
 c1427_load_high__t404: p404__load_high >= 1
 c1428_load_high__t405: p405__load_high >= 1
 c1429_load_high__t406: p406__load_high >= 1
 c1430_load_high__t407: p407__load_high >= 1
 c1431_load_high__t408: p408__load_high >= 1
 c1432_load_high__t409: p409__load_high >= 1
 c1433_load_high__t410: p410__load_high >= 1
 c1434_load_high__t411: p411__load_high >= 1
 c1435_load_high__t412: p412__load_high >= 1
 c1436_load_high__t413: p413__load_high >= 1
 c1437_load_high__t414: p414__load_high >= 1
 c1438_load_high__t415: p415__load_high >= 1
 c1439_load_high__t416: p416__load_high >= 1
 c1440_load_high__t417: p417__load_high >= 1
 c1441_load_high__t418: p418__load_high >= 1
 c1442_load_high__t419: p419__load_high >= 1
 c1443_load_high__t420: p420__load_high >= 1
 c1444_load_high__t421: p421__load_high >= 1
 c1445_load_high__t422: p422__load_high >= 1
 c1446_load_high__t423: p423__load_high >= 1
 c1447_load_high__t424: p424__load_high >= 1
 c1448_load_high__t425: p425__load_high >= 1
 c1449_load_high__t426: p426__load_high >= 1
 c1450_load_high__t427: p427__load_high >= 1
 c1451_load_high__t428: p428__load_high >= 1
 c1452_load_high__t429: p429__load_high >= 1
 c1453_load_high__t430: p430__load_high >= 1
 c1454_load_high__t431: p431__load_high >= 1
 c1455_load_high__t432: p432__load_high >= 1
 c1456_load_high__t433: p433__load_high >= 1
 c1457_load_high__t434: p434__load_high >= 1
 c1458_load_high__t435: p435__load_high >= 1
 c1459_load_high__t436: p436__load_high >= 1
 c1460_load_high__t437: p437__load_high >= 1
 c1461_load_high__t438: p438__load_high >= 1
 c1462_load_high__t439: p439__load_high >= 1
 c1463_load_high__t440: p440__load_high >= 1
 c1464_load_high__t441: p441__load_high >= 1
 c1465_load_high__t442: p442__load_high >= 1
 c1466_load_high__t443: p443__load_high >= 1
 c1467_load_high__t444: p444__load_high >= 1
 c1468_load_high__t445: p445__load_high >= 1
 c1469_load_high__t446: p446__load_high >= 1
 c1470_load_high__t447: p447__load_high >= 1
 c1471_load_high__t448: p448__load_high >= 1
 c1472_load_high__t449: p449__load_high >= 1
 c1473_load_high__t450: p450__load_high >= 1
 c1474_load_high__t451: p451__load_high >= 1
 c1475_load_high__t452: p452__load_high >= 1
 c1476_load_high__t453: p453__load_high >= 1
 c1477_load_high__t454: p454__load_high >= 1
 c1478_load_high__t455: p455__load_high >= 1
 c1479_load_high__t456: p456__load_high >= 1
 c1480_load_high__t457: p457__load_high >= 1
 c1481_load_high__t458: p458__load_high >= 1
 c1482_load_high__t459: p459__load_high >= 1
 c1483_load_high__t460: p460__load_high >= 1
 c1484_load_high__t461: p461__load_high >= 1
 c1485_load_high__t462: p462__load_high >= 1
 c1486_load_high__t463: p463__load_high >= 1
 c1487_load_high__t464: p464__load_high >= 1
 c1488_load_high__t465: p465__load_high >= 1
 c1489_load_high__t466: p466__load_high >= 1
 c1490_load_high__t467: p467__load_high >= 1
 c1491_load_high__t468: p468__load_high >= 1
 c1492_load_high__t469: p469__load_high >= 1
 c1493_load_high__t470: p470__load_high >= 1
 c1494_load_high__t471: p471__load_high >= 1
 c1495_load_high__t472: p472__load_high >= 1
 c1496_load_high__t473: p473__load_high >= 1
 c1497_load_high__t474: p474__load_high >= 1
 c1498_load_high__t475: p475__load_high >= 1
 c1499_load_high__t476: p476__load_high >= 1
 c1500_load_high__t477: p477__load_high >= 1
 c1501_load_high__t478: p478__load_high >= 1
 c1502_load_high__t479: p479__load_high >= 1
 c1503_load_high__t480: p480__load_high >= 1
 c1504_load_high__t481: p481__load_high >= 1
 c1505_load_high__t482: p482__load_high >= 1
 c1506_load_high__t483: p483__load_high >= 1
 c1507_load_high__t484: p484__load_high >= 1
 c1508_load_high__t485: p485__load_high >= 1
 c1509_load_high__t486: p486__load_high >= 1
 c1510_load_high__t487: p487__load_high >= 1
 c1511_load_high__t488: p488__load_high >= 1
 c1512_load_high__t489: p489__load_high >= 1
 c1513_load_high__t490: p490__load_high >= 1
 c1514_load_high__t491: p491__load_high >= 1
 c1515_load_high__t492: p492__load_high >= 1
 c1516_load_high__t493: p493__load_high >= 1
 c1517_load_high__t494: p494__load_high >= 1
 c1518_load_high__t495: p495__load_high >= 1
 c1519_load_high__t496: p496__load_high >= 1
 c1520_load_high__t497: p497__load_high >= 1
 c1521_load_high__t498: p498__load_high >= 1
 c1522_load_high__t499: p499__load_high >= 1
 c1523_load_high__t500: p500__load_high >= 1
 c1524_load_high__t501: p501__load_high >= 1
 c1525_load_high__t502: p502__load_high >= 1
 c1526_load_high__t503: p503__load_high >= 1
 c1527_load_high__t504: p504__load_high >= 1
 c1528_load_high__t505: p505__load_high >= 1
 c1529_load_high__t506: p506__load_high >= 1
 c1530_load_high__t507: p507__load_high >= 1
 c1531_load_high__t508: p508__load_high >= 1
 c1532_load_high__t509: p509__load_high >= 1
 c1533_load_high__t510: p510__load_high >= 1
 c1534_load_high__t511: p511__load_high >= 1
 c1535_load_high__t512: p512__load_high >= 1
 c1536_load_high__t513: p513__load_high >= 1
 c1537_load_high__t514: p514__load_high >= 1
 c1538_load_high__t515: p515__load_high >= 1
 c1539_load_high__t516: p516__load_high >= 1
 c1540_load_high__t517: p517__load_high >= 1
 c1541_load_high__t518: p518__load_high >= 1
 c1542_load_high__t519: p519__load_high >= 1
 c1543_load_high__t520: p520__load_high >= 1
 c1544_load_high__t521: p521__load_high >= 1
 c1545_load_high__t522: p522__load_high >= 1
 c1546_load_high__t523: p523__load_high >= 1
 c1547_load_high__t524: p524__load_high >= 1
 c1548_load_high__t525: p525__load_high >= 1
 c1549_load_high__t526: p526__load_high >= 1
 c1550_load_high__t527: p527__load_high >= 1
 c1551_load_high__t528: p528__load_high >= 1
 c1552_load_high__t529: p529__load_high >= 1
 c1553_load_high__t530: p530__load_high >= 1
 c1554_load_high__t531: p531__load_high >= 1
 c1555_load_high__t532: p532__load_high >= 1
 c1556_load_high__t533: p533__load_high >= 1
 c1557_load_high__t534: p534__load_high >= 1
 c1558_load_high__t535: p535__load_high >= 1
 c1559_load_high__t536: p536__load_high >= 1
 c1560_load_high__t537: p537__load_high >= 1
 c1561_load_high__t538: p538__load_high >= 1
 c1562_load_high__t539: p539__load_high >= 1
 c1563_load_high__t540: p540__load_high >= 1
 c1564_load_high__t541: p541__load_high >= 1
 c1565_load_high__t542: p542__load_high >= 1
 c1566_load_high__t543: p543__load_high >= 1
 c1567_load_high__t544: p544__load_high >= 1
 c1568_load_high__t545: p545__load_high >= 1
 c1569_load_high__t546: p546__load_high >= 1
 c1570_load_high__t547: p547__load_high >= 1
 c1571_load_high__t548: p548__load_high >= 1
 c1572_load_high__t549: p549__load_high >= 1
 c1573_load_high__t550: p550__load_high >= 1
 c1574_load_high__t551: p551__load_high >= 1
 c1575_load_high__t552: p552__load_high >= 1
 c1576_load_high__t553: p553__load_high >= 1
 c1577_load_high__t554: p554__load_high >= 1
 c1578_load_high__t555: p555__load_high >= 1
 c1579_load_high__t556: p556__load_high >= 1
 c1580_load_high__t557: p557__load_high >= 1
 c1581_load_high__t558: p558__load_high >= 1
 c1582_load_high__t559: p559__load_high >= 1
 c1583_load_high__t560: p560__load_high >= 1
 c1584_load_high__t561: p561__load_high >= 1
 c1585_load_high__t562: p562__load_high >= 1
 c1586_load_high__t563: p563__load_high >= 1
 c1587_load_high__t564: p564__load_high >= 1
 c1588_load_high__t565: p565__load_high >= 1
 c1589_load_high__t566: p566__load_high >= 1
 c1590_load_high__t567: p567__load_high >= 1
 c1591_load_high__t568: p568__load_high >= 1
 c1592_load_high__t569: p569__load_high >= 1
 c1593_load_high__t570: p570__load_high >= 1
 c1594_load_high__t571: p571__load_high >= 1
 c1595_load_high__t572: p572__load_high >= 1
 c1596_load_high__t573: p573__load_high >= 1
 c1597_load_high__t574: p574__load_high >= 1
 c1598_load_high__t575: p575__load_high >= 1
 c1599_load_high__t576: p576__load_high >= 1
 c1600_load_high__t577: p577__load_high >= 1
 c1601_load_high__t578: p578__load_high >= 1
 c1602_load_high__t579: p579__load_high >= 1
 c1603_load_high__t580: p580__load_high >= 1
 c1604_load_high__t581: p581__load_high >= 1
 c1605_load_high__t582: p582__load_high >= 1
 c1606_load_high__t583: p583__load_high >= 1
 c1607_load_high__t584: p584__load_high >= 1
 c1608_load_high__t585: p585__load_high >= 1
 c1609_load_high__t586: p586__load_high >= 1
 c1610_load_high__t587: p587__load_high >= 1
 c1611_load_high__t588: p588__load_high >= 1
 c1612_load_high__t589: p589__load_high >= 1
 c1613_load_high__t590: p590__load_high >= 1
 c1614_load_high__t591: p591__load_high >= 1
 c1615_load_high__t592: p592__load_high >= 1
 c1616_load_high__t593: p593__load_high >= 1
 c1617_load_high__t594: p594__load_high >= 1
 c1618_load_high__t595: p595__load_high >= 1
 c1619_load_high__t596: p596__load_high >= 1
 c1620_load_high__t597: p597__load_high >= 1
 c1621_load_high__t598: p598__load_high >= 1
 c1622_load_high__t599: p599__load_high >= 1
 c1623_load_high__t600: p600__load_high >= 1
 c1624_load_high__t601: p601__load_high >= 1
 c1625_load_high__t602: p602__load_high >= 1
 c1626_load_high__t603: p603__load_high >= 1
 c1627_load_high__t604: p604__load_high >= 1
 c1628_load_high__t605: p605__load_high >= 1
 c1629_load_high__t606: p606__load_high >= 1
 c1630_load_high__t607: p607__load_high >= 1
 c1631_load_high__t608: p608__load_high >= 1
 c1632_load_high__t609: p609__load_high >= 1
 c1633_load_high__t610: p610__load_high >= 1
 c1634_load_high__t611: p611__load_high >= 1
 c1635_load_high__t612: p612__load_high >= 1
 c1636_load_high__t613: p613__load_high >= 1
 c1637_load_high__t614: p614__load_high >= 1
 c1638_load_high__t615: p615__load_high >= 1
 c1639_load_high__t616: p616__load_high >= 1
 c1640_load_high__t617: p617__load_high >= 1
 c1641_load_high__t618: p618__load_high >= 1
 c1642_load_high__t619: p619__load_high >= 1
 c1643_load_high__t620: p620__load_high >= 1
 c1644_load_high__t621: p621__load_high >= 1
 c1645_load_high__t622: p622__load_high >= 1
 c1646_load_high__t623: p623__load_high >= 1
 c1647_load_high__t624: p624__load_high >= 1
 c1648_load_high__t625: p625__load_high >= 1
 c1649_load_high__t626: p626__load_high >= 1
 c1650_load_high__t627: p627__load_high >= 1
 c1651_load_high__t628: p628__load_high >= 1
 c1652_load_high__t629: p629__load_high >= 1
 c1653_load_high__t630: p630__load_high >= 1
 c1654_load_high__t631: p631__load_high >= 1
 c1655_load_high__t632: p632__load_high >= 1
 c1656_load_high__t633: p633__load_high >= 1
 c1657_load_high__t634: p634__load_high >= 1
 c1658_load_high__t635: p635__load_high >= 1
 c1659_load_high__t636: p636__load_high >= 1
 c1660_load_high__t637: p637__load_high >= 1
 c1661_load_high__t638: p638__load_high >= 1
 c1662_load_high__t639: p639__load_high >= 1
 c1663_load_high__t640: p640__load_high >= 1
 c1664_load_high__t641: p641__load_high >= 1
 c1665_load_high__t642: p642__load_high >= 1
 c1666_load_high__t643: p643__load_high >= 1
 c1667_load_high__t644: p644__load_high >= 1
 c1668_load_high__t645: p645__load_high >= 1
 c1669_load_high__t646: p646__load_high >= 1
 c1670_load_high__t647: p647__load_high >= 1
 c1671_load_high__t648: p648__load_high >= 1
 c1672_load_high__t649: p649__load_high >= 1
 c1673_load_high__t650: p650__load_high >= 1
 c1674_load_high__t651: p651__load_high >= 1
 c1675_load_high__t652: p652__load_high >= 1
 c1676_load_high__t653: p653__load_high >= 1
 c1677_load_high__t654: p654__load_high >= 1
 c1678_load_high__t655: p655__load_high >= 1
 c1679_load_high__t656: p656__load_high >= 1
 c1680_load_high__t657: p657__load_high >= 1
 c1681_load_high__t658: p658__load_high >= 1
 c1682_load_high__t659: p659__load_high >= 1
 c1683_load_high__t660: p660__load_high >= 1
 c1684_load_high__t661: p661__load_high >= 1
 c1685_load_high__t662: p662__load_high >= 1
 c1686_load_high__t663: p663__load_high >= 1
 c1687_load_high__t664: p664__load_high >= 1
 c1688_load_high__t665: p665__load_high >= 1
 c1689_load_high__t666: p666__load_high >= 1
 c1690_load_high__t667: p667__load_high >= 1
 c1691_load_high__t668: p668__load_high >= 1
 c1692_load_high__t669: p669__load_high >= 1
 c1693_load_high__t670: p670__load_high >= 1
 c1694_load_high__t671: p671__load_high >= 1
 c1695_load_high__t672: p672__load_high >= 1
 c1696_load_high__t673: p673__load_high >= 1
 c1697_load_high__t674: p674__load_high >= 1
 c1698_load_high__t675: p675__load_high >= 1
 c1699_load_high__t676: p676__load_high >= 1
 c1700_load_high__t677: p677__load_high >= 1
 c1701_load_high__t678: p678__load_high >= 1
 c1702_load_high__t679: p679__load_high >= 1
 c1703_load_high__t680: p680__load_high >= 1
 c1704_load_high__t681: p681__load_high >= 1
 c1705_load_high__t682: p682__load_high >= 1
 c1706_load_high__t683: p683__load_high >= 1
 c1707_load_high__t684: p684__load_high >= 1
 c1708_load_high__t685: p685__load_high >= 1
 c1709_load_high__t686: p686__load_high >= 1
 c1710_load_high__t687: p687__load_high >= 1
 c1711_load_high__t688: p688__load_high >= 1
 c1712_load_high__t689: p689__load_high >= 1
 c1713_load_high__t690: p690__load_high >= 1
 c1714_load_high__t691: p691__load_high >= 1
 c1715_load_high__t692: p692__load_high >= 1
 c1716_load_high__t693: p693__load_high >= 1
 c1717_load_high__t694: p694__load_high >= 1
 c1718_load_high__t695: p695__load_high >= 1
 c1719_load_high__t696: p696__load_high >= 1
 c1720_load_high__t697: p697__load_high >= 1
 c1721_load_high__t698: p698__load_high >= 1
 c1722_load_high__t699: p699__load_high >= 1
 c1723_load_high__t700: p700__load_high >= 1
 c1724_load_high__t701: p701__load_high >= 1
 c1725_load_high__t702: p702__load_high >= 1
 c1726_load_high__t703: p703__load_high >= 1
 c1727_load_high__t704: p704__load_high >= 1
 c1728_load_high__t705: p705__load_high >= 1
 c1729_load_high__t706: p706__load_high >= 1
 c1730_load_high__t707: p707__load_high >= 1
 c1731_load_high__t708: p708__load_high >= 1
 c1732_load_high__t709: p709__load_high >= 1
 c1733_load_high__t710: p710__load_high >= 1
 c1734_load_high__t711: p711__load_high >= 1
 c1735_load_high__t712: p712__load_high >= 1
 c1736_load_high__t713: p713__load_high >= 1
 c1737_load_high__t714: p714__load_high >= 1
 c1738_load_high__t715: p715__load_high >= 1
 c1739_load_high__t716: p716__load_high >= 1
 c1740_load_high__t717: p717__load_high >= 1
 c1741_load_high__t718: p718__load_high >= 1
 c1742_load_high__t719: p719__load_high >= 1
 c1743_load_high__t720: p720__load_high >= 1
 c1744_load_high__t721: p721__load_high >= 1
 c1745_load_high__t722: p722__load_high >= 1
 c1746_load_high__t723: p723__load_high >= 1
 c1747_load_high__t724: p724__load_high >= 1
 c1748_load_high__t725: p725__load_high >= 1
 c1749_load_high__t726: p726__load_high >= 1
 c1750_load_high__t727: p727__load_high >= 1
 c1751_load_high__t728: p728__load_high >= 1
 c1752_load_high__t729: p729__load_high >= 1
 c1753_load_high__t730: p730__load_high >= 1
 c1754_load_high__t731: p731__load_high >= 1
 c1755_load_high__t732: p732__load_high >= 1
 c1756_load_high__t733: p733__load_high >= 1
 c1757_load_high__t734: p734__load_high >= 1
 c1758_load_high__t735: p735__load_high >= 1
 c1759_load_high__t736: p736__load_high >= 1
 c1760_load_high__t737: p737__load_high >= 1
 c1761_load_high__t738: p738__load_high >= 1
 c1762_load_high__t739: p739__load_high >= 1
 c1763_load_high__t740: p740__load_high >= 1
 c1764_load_high__t741: p741__load_high >= 1
 c1765_load_high__t742: p742__load_high >= 1
 c1766_load_high__t743: p743__load_high >= 1
 c1767_load_high__t744: p744__load_high >= 1
 c1768_load_high__t745: p745__load_high >= 1
 c1769_load_high__t746: p746__load_high >= 1
 c1770_load_high__t747: p747__load_high >= 1
 c1771_load_high__t748: p748__load_high >= 1
 c1772_load_high__t749: p749__load_high >= 1
 c1773_load_high__t750: p750__load_high >= 1
 c1774_load_high__t751: p751__load_high >= 1
 c1775_load_high__t752: p752__load_high >= 1
 c1776_load_high__t753: p753__load_high >= 1
 c1777_load_high__t754: p754__load_high >= 1
 c1778_load_high__t755: p755__load_high >= 1
 c1779_load_high__t756: p756__load_high >= 1
 c1780_load_high__t757: p757__load_high >= 1
 c1781_load_high__t758: p758__load_high >= 1
 c1782_load_high__t759: p759__load_high >= 1
 c1783_load_high__t760: p760__load_high >= 1
 c1784_load_high__t761: p761__load_high >= 1
 c1785_load_high__t762: p762__load_high >= 1
 c1786_load_high__t763: p763__load_high >= 1
 c1787_load_high__t764: p764__load_high >= 1
 c1788_load_high__t765: p765__load_high >= 1
 c1789_load_high__t766: p766__load_high >= 1
 c1790_load_high__t767: p767__load_high >= 1
 c1791_load_high__t768: p768__load_high >= 1
 c1792_load_high__t769: p769__load_high >= 1
 c1793_load_high__t770: p770__load_high >= 1
 c1794_load_high__t771: p771__load_high >= 1
 c1795_load_high__t772: p772__load_high >= 1
 c1796_load_high__t773: p773__load_high >= 1
 c1797_load_high__t774: p774__load_high >= 1
 c1798_load_high__t775: p775__load_high >= 1
 c1799_load_high__t776: p776__load_high >= 1
 c1800_load_high__t777: p777__load_high >= 1
 c1801_load_high__t778: p778__load_high >= 1
 c1802_load_high__t779: p779__load_high >= 1
 c1803_load_high__t780: p780__load_high >= 1
 c1804_load_high__t781: p781__load_high >= 1
 c1805_load_high__t782: p782__load_high >= 1
 c1806_load_high__t783: p783__load_high >= 1
 c1807_load_high__t784: p784__load_high >= 1
 c1808_load_high__t785: p785__load_high >= 1
 c1809_load_high__t786: p786__load_high >= 1
 c1810_load_high__t787: p787__load_high >= 1
 c1811_load_high__t788: p788__load_high >= 1
 c1812_load_high__t789: p789__load_high >= 1
 c1813_load_high__t790: p790__load_high >= 1
 c1814_load_high__t791: p791__load_high >= 1
 c1815_load_high__t792: p792__load_high >= 1
 c1816_load_high__t793: p793__load_high >= 1
 c1817_load_high__t794: p794__load_high >= 1
 c1818_load_high__t795: p795__load_high >= 1
 c1819_load_high__t796: p796__load_high >= 1
 c1820_load_high__t797: p797__load_high >= 1
 c1821_load_high__t798: p798__load_high >= 1
 c1822_load_high__t799: p799__load_high >= 1
 c1823_load_high__t800: p800__load_high >= 1
 c1824_load_high__t801: p801__load_high >= 1
 c1825_load_high__t802: p802__load_high >= 1
 c1826_load_high__t803: p803__load_high >= 1
 c1827_load_high__t804: p804__load_high >= 1
 c1828_load_high__t805: p805__load_high >= 1
 c1829_load_high__t806: p806__load_high >= 1
 c1830_load_high__t807: p807__load_high >= 1
 c1831_load_high__t808: p808__load_high >= 1
 c1832_load_high__t809: p809__load_high >= 1
 c1833_load_high__t810: p810__load_high >= 1
 c1834_load_high__t811: p811__load_high >= 1
 c1835_load_high__t812: p812__load_high >= 1
 c1836_load_high__t813: p813__load_high >= 1
 c1837_load_high__t814: p814__load_high >= 1
 c1838_load_high__t815: p815__load_high >= 1
 c1839_load_high__t816: p816__load_high >= 1
 c1840_load_high__t817: p817__load_high >= 1
 c1841_load_high__t818: p818__load_high >= 1
 c1842_load_high__t819: p819__load_high >= 1
 c1843_load_high__t820: p820__load_high >= 1
 c1844_load_high__t821: p821__load_high >= 1
 c1845_load_high__t822: p822__load_high >= 1
 c1846_load_high__t823: p823__load_high >= 1
 c1847_load_high__t824: p824__load_high >= 1
 c1848_load_high__t825: p825__load_high >= 1
 c1849_load_high__t826: p826__load_high >= 1
 c1850_load_high__t827: p827__load_high >= 1
 c1851_load_high__t828: p828__load_high >= 1
 c1852_load_high__t829: p829__load_high >= 1
 c1853_load_high__t830: p830__load_high >= 1
 c1854_load_high__t831: p831__load_high >= 1
 c1855_load_high__t832: p832__load_high >= 1
 c1856_load_high__t833: p833__load_high >= 1
 c1857_load_high__t834: p834__load_high >= 1
 c1858_load_high__t835: p835__load_high >= 1
 c1859_load_high__t836: p836__load_high >= 1
 c1860_load_high__t837: p837__load_high >= 1
 c1861_load_high__t838: p838__load_high >= 1
 c1862_load_high__t839: p839__load_high >= 1
 c1863_load_high__t840: p840__load_high >= 1
 c1864_load_high__t841: p841__load_high >= 1
 c1865_load_high__t842: p842__load_high >= 1
 c1866_load_high__t843: p843__load_high >= 1
 c1867_load_high__t844: p844__load_high >= 1
 c1868_load_high__t845: p845__load_high >= 1
 c1869_load_high__t846: p846__load_high >= 1
 c1870_load_high__t847: p847__load_high >= 1
 c1871_load_high__t848: p848__load_high >= 1
 c1872_load_high__t849: p849__load_high >= 1
 c1873_load_high__t850: p850__load_high >= 1
 c1874_load_high__t851: p851__load_high >= 1
 c1875_load_high__t852: p852__load_high >= 1
 c1876_load_high__t853: p853__load_high >= 1
 c1877_load_high__t854: p854__load_high >= 1
 c1878_load_high__t855: p855__load_high >= 1
 c1879_load_high__t856: p856__load_high >= 1
 c1880_load_high__t857: p857__load_high >= 1
 c1881_load_high__t858: p858__load_high >= 1
 c1882_load_high__t859: p859__load_high >= 1
 c1883_load_high__t860: p860__load_high >= 1
 c1884_load_high__t861: p861__load_high >= 1
 c1885_load_high__t862: p862__load_high >= 1
 c1886_load_high__t863: p863__load_high >= 1
 c1887_load_high__t864: p864__load_high >= 1
 c1888_load_high__t865: p865__load_high >= 1
 c1889_load_high__t866: p866__load_high >= 1
 c1890_load_high__t867: p867__load_high >= 1
 c1891_load_high__t868: p868__load_high >= 1
 c1892_load_high__t869: p869__load_high >= 1
 c1893_load_high__t870: p870__load_high >= 1
 c1894_load_high__t871: p871__load_high >= 1
 c1895_load_high__t872: p872__load_high >= 1
 c1896_load_high__t873: p873__load_high >= 1
 c1897_load_high__t874: p874__load_high >= 1
 c1898_load_high__t875: p875__load_high >= 1
 c1899_load_high__t876: p876__load_high >= 1
 c1900_load_high__t877: p877__load_high >= 1
 c1901_load_high__t878: p878__load_high >= 1
 c1902_load_high__t879: p879__load_high >= 1
 c1903_load_high__t880: p880__load_high >= 1
 c1904_load_high__t881: p881__load_high >= 1
 c1905_load_high__t882: p882__load_high >= 1
 c1906_load_high__t883: p883__load_high >= 1
 c1907_load_high__t884: p884__load_high >= 1
 c1908_load_high__t885: p885__load_high >= 1
 c1909_load_high__t886: p886__load_high >= 1
 c1910_load_high__t887: p887__load_high >= 1
 c1911_load_high__t888: p888__load_high >= 1
 c1912_load_high__t889: p889__load_high >= 1
 c1913_load_high__t890: p890__load_high >= 1
 c1914_load_high__t891: p891__load_high >= 1
 c1915_load_high__t892: p892__load_high >= 1
 c1916_load_high__t893: p893__load_high >= 1
 c1917_load_high__t894: p894__load_high >= 1
 c1918_load_high__t895: p895__load_high >= 1
 c1919_load_high__t896: p896__load_high >= 1
 c1920_load_high__t897: p897__load_high >= 1
 c1921_load_high__t898: p898__load_high >= 1
 c1922_load_high__t899: p899__load_high >= 1
 c1923_load_high__t900: p900__load_high >= 1
 c1924_load_high__t901: p901__load_high >= 1
 c1925_load_high__t902: p902__load_high >= 1
 c1926_load_high__t903: p903__load_high >= 1
 c1927_load_high__t904: p904__load_high >= 1
 c1928_load_high__t905: p905__load_high >= 1
 c1929_load_high__t906: p906__load_high >= 1
 c1930_load_high__t907: p907__load_high >= 1
 c1931_load_high__t908: p908__load_high >= 1
 c1932_load_high__t909: p909__load_high >= 1
 c1933_load_high__t910: p910__load_high >= 1
 c1934_load_high__t911: p911__load_high >= 1
 c1935_load_high__t912: p912__load_high >= 1
 c1936_load_high__t913: p913__load_high >= 1
 c1937_load_high__t914: p914__load_high >= 1
 c1938_load_high__t915: p915__load_high >= 1
 c1939_load_high__t916: p916__load_high >= 1
 c1940_load_high__t917: p917__load_high >= 1
 c1941_load_high__t918: p918__load_high >= 1
 c1942_load_high__t919: p919__load_high >= 1
 c1943_load_high__t920: p920__load_high >= 1
 c1944_load_high__t921: p921__load_high >= 1
 c1945_load_high__t922: p922__load_high >= 1
 c1946_load_high__t923: p923__load_high >= 1
 c1947_load_high__t924: p924__load_high >= 1
 c1948_load_high__t925: p925__load_high >= 1
 c1949_load_high__t926: p926__load_high >= 1
 c1950_load_high__t927: p927__load_high >= 1
 c1951_load_high__t928: p928__load_high >= 1
 c1952_load_high__t929: p929__load_high >= 1
 c1953_load_high__t930: p930__load_high >= 1
 c1954_load_high__t931: p931__load_high >= 1
 c1955_load_high__t932: p932__load_high >= 1
 c1956_load_high__t933: p933__load_high >= 1
 c1957_load_high__t934: p934__load_high >= 1
 c1958_load_high__t935: p935__load_high >= 1
 c1959_load_high__t936: p936__load_high >= 1
 c1960_load_high__t937: p937__load_high >= 1
 c1961_load_high__t938: p938__load_high >= 1
 c1962_load_high__t939: p939__load_high >= 1
 c1963_load_high__t940: p940__load_high >= 1
 c1964_load_high__t941: p941__load_high >= 1
 c1965_load_high__t942: p942__load_high >= 1
 c1966_load_high__t943: p943__load_high >= 1
 c1967_load_high__t944: p944__load_high >= 1
 c1968_load_high__t945: p945__load_high >= 1
 c1969_load_high__t946: p946__load_high >= 1
 c1970_load_high__t947: p947__load_high >= 1
 c1971_load_high__t948: p948__load_high >= 1
 c1972_load_high__t949: p949__load_high >= 1
 c1973_load_high__t950: p950__load_high >= 1
 c1974_load_high__t951: p951__load_high >= 1
 c1975_load_high__t952: p952__load_high >= 1
 c1976_load_high__t953: p953__load_high >= 1
 c1977_load_high__t954: p954__load_high >= 1
 c1978_load_high__t955: p955__load_high >= 1
 c1979_load_high__t956: p956__load_high >= 1
 c1980_load_high__t957: p957__load_high >= 1
 c1981_load_high__t958: p958__load_high >= 1
 c1982_load_high__t959: p959__load_high >= 1
 c1983_load_high__t960: p960__load_high >= 1
 c1984_load_high__t961: p961__load_high >= 1
 c1985_load_high__t962: p962__load_high >= 1
 c1986_load_high__t963: p963__load_high >= 1
 c1987_load_high__t964: p964__load_high >= 1
 c1988_load_high__t965: p965__load_high >= 1
 c1989_load_high__t966: p966__load_high >= 1
 c1990_load_high__t967: p967__load_high >= 1
 c1991_load_high__t968: p968__load_high >= 1
 c1992_load_high__t969: p969__load_high >= 1
 c1993_load_high__t970: p970__load_high >= 1
 c1994_load_high__t971: p971__load_high >= 1
 c1995_load_high__t972: p972__load_high >= 1
 c1996_load_high__t973: p973__load_high >= 1
 c1997_load_high__t974: p974__load_high >= 1
 c1998_load_high__t975: p975__load_high >= 1
 c1999_load_high__t976: p976__load_high >= 1
 c2000_load_high__t977: p977__load_high >= 1
 c2001_load_high__t978: p978__load_high >= 1
 c2002_load_high__t979: p979__load_high >= 1
 c2003_load_high__t980: p980__load_high >= 1
 c2004_load_high__t981: p981__load_high >= 1
 c2005_load_high__t982: p982__load_high >= 1
 c2006_load_high__t983: p983__load_high >= 1
 c2007_load_high__t984: p984__load_high >= 1
 c2008_load_high__t985: p985__load_high >= 1
 c2009_load_high__t986: p986__load_high >= 1
 c2010_load_high__t987: p987__load_high >= 1
 c2011_load_high__t988: p988__load_high >= 1
 c2012_load_high__t989: p989__load_high >= 1
 c2013_load_high__t990: p990__load_high >= 1
 c2014_load_high__t991: p991__load_high >= 1
 c2015_load_high__t992: p992__load_high >= 1
 c2016_load_high__t993: p993__load_high >= 1
 c2017_load_high__t994: p994__load_high >= 1
 c2018_load_high__t995: p995__load_high >= 1
 c2019_load_high__t996: p996__load_high >= 1
 c2020_load_high__t997: p997__load_high >= 1
 c2021_load_high__t998: p998__load_high >= 1
 c2022_load_high__t999: p999__load_high >= 1
 c2023_load_high__t1000: p1000__load_high >= 1
 c2024_load_high__t1001: p1001__load_high >= 1
 c2025_load_high__t1002: p1002__load_high >= 1
 c2026_load_high__t1003: p1003__load_high >= 1
 c2027_load_high__t1004: p1004__load_high >= 1
 c2028_load_high__t1005: p1005__load_high >= 1
 c2029_load_high__t1006: p1006__load_high >= 1
 c2030_load_high__t1007: p1007__load_high >= 1
 c2031_load_high__t1008: p1008__load_high >= 1
 c2032_load_high__t1009: p1009__load_high >= 1
 c2033_load_high__t1010: p1010__load_high >= 1
 c2034_load_high__t1011: p1011__load_high >= 1
 c2035_load_high__t1012: p1012__load_high >= 1
 c2036_load_high__t1013: p1013__load_high >= 1
 c2037_load_high__t1014: p1014__load_high >= 1
 c2038_load_high__t1015: p1015__load_high >= 1
 c2039_load_high__t1016: p1016__load_high >= 1
 c2040_load_high__t1017: p1017__load_high >= 1
 c2041_load_high__t1018: p1018__load_high >= 1
 c2042_load_high__t1019: p1019__load_high >= 1
 c2043_load_high__t1020: p1020__load_high >= 1
 c2044_load_high__t1021: p1021__load_high >= 1
 c2045_load_high__t1022: p1022__load_high >= 1
 c2046_load_high__t1023: p1023__load_high >= 1
 c2047_load_high__t1024: p1024__load_high >= 1
Binary
 p1__load_low
 p2__load_low
 p3__load_low
 p4__load_low
 p5__load_low
 p6__load_low
 p7__load_low
 p8__load_low
 p9__load_low
 p10__load_low
 p11__load_low
 p12__load_low
 p13__load_low
 p14__load_low
 p15__load_low
 p16__load_low
 p17__load_low
 p18__load_low
 p19__load_low
 p20__load_low
 p21__load_low
 p22__load_low
 p23__load_low
 p24__load_low
 p25__load_low
 p26__load_low
 p27__load_low
 p28__load_low
 p29__load_low
 p30__load_low
 p31__load_low
 p32__load_low
 p33__load_low
 p34__load_low
 p35__load_low
 p36__load_low
 p37__load_low
 p38__load_low
 p39__load_low
 p40__load_low
 p41__load_low
 p42__load_low
 p43__load_low
 p44__load_low
 p45__load_low
 p46__load_low
 p47__load_low
 p48__load_low
 p49__load_low
 p50__load_low
 p51__load_low
 p52__load_low
 p53__load_low
 p54__load_low
 p55__load_low
 p56__load_low
 p57__load_low
 p58__load_low
 p59__load_low
 p60__load_low
 p61__load_low
 p62__load_low
 p63__load_low
 p64__load_low
 p65__load_low
 p66__load_low
 p67__load_low
 p68__load_low
 p69__load_low
 p70__load_low
 p71__load_low
 p72__load_low
 p73__load_low
 p74__load_low
 p75__load_low
 p76__load_low
 p77__load_low
 p78__load_low
 p79__load_low
 p80__load_low
 p81__load_low
 p82__load_low
 p83__load_low
 p84__load_low
 p85__load_low
 p86__load_low
 p87__load_low
 p88__load_low
 p89__load_low
 p90__load_low
 p91__load_low
 p92__load_low
 p93__load_low
 p94__load_low
 p95__load_low
 p96__load_low
 p97__load_low
 p98__load_low
 p99__load_low
 p100__load_low
 p101__load_low
 p102__load_low
 p103__load_low
 p104__load_low
 p105__load_low
 p106__load_low
 p107__load_low
 p108__load_low
 p109__load_low
 p110__load_low
 p111__load_low
 p112__load_low
 p113__load_low
 p114__load_low
 p115__load_low
 p116__load_low
 p117__load_low
 p118__load_low
 p119__load_low
 p120__load_low
 p121__load_low
 p122__load_low
 p123__load_low
 p124__load_low
 p125__load_low
 p126__load_low
 p127__load_low
 p128__load_low
 p129__load_low
 p130__load_low
 p131__load_low
 p132__load_low
 p133__load_low
 p134__load_low
 p135__load_low
 p136__load_low
 p137__load_low
 p138__load_low
 p139__load_low
 p140__load_low
 p141__load_low
 p142__load_low
 p143__load_low
 p144__load_low
 p145__load_low
 p146__load_low
 p147__load_low
 p148__load_low
 p149__load_low
 p150__load_low
 p151__load_low
 p152__load_low
 p153__load_low
 p154__load_low
 p155__load_low
 p156__load_low
 p157__load_low
 p158__load_low
 p159__load_low
 p160__load_low
 p161__load_low
 p162__load_low
 p163__load_low
 p164__load_low
 p165__load_low
 p166__load_low
 p167__load_low
 p168__load_low
 p169__load_low
 p170__load_low
 p171__load_low
 p172__load_low
 p173__load_low
 p174__load_low
 p175__load_low
 p176__load_low
 p177__load_low
 p178__load_low
 p179__load_low
 p180__load_low
 p181__load_low
 p182__load_low
 p183__load_low
 p184__load_low
 p185__load_low
 p186__load_low
 p187__load_low
 p188__load_low
 p189__load_low
 p190__load_low
 p191__load_low
 p192__load_low
 p193__load_low
 p194__load_low
 p195__load_low
 p196__load_low
 p197__load_low
 p198__load_low
 p199__load_low
 p200__load_low
 p201__load_low
 p202__load_low
 p203__load_low
 p204__load_low
 p205__load_low
 p206__load_low
 p207__load_low
 p208__load_low
 p209__load_low
 p210__load_low
 p211__load_low
 p212__load_low
 p213__load_low
 p214__load_low
 p215__load_low
 p216__load_low
 p217__load_low
 p218__load_low
 p219__load_low
 p220__load_low
 p221__load_low
 p222__load_low
 p223__load_low
 p224__load_low
 p225__load_low
 p226__load_low
 p227__load_low
 p228__load_low
 p229__load_low
 p230__load_low
 p231__load_low
 p232__load_low
 p233__load_low
 p234__load_low
 p235__load_low
 p236__load_low
 p237__load_low
 p238__load_low
 p239__load_low
 p240__load_low
 p241__load_low
 p242__load_low
 p243__load_low
 p244__load_low
 p245__load_low
 p246__load_low
 p247__load_low
 p248__load_low
 p249__load_low
 p250__load_low
 p251__load_low
 p252__load_low
 p253__load_low
 p254__load_low
 p255__load_low
 p256__load_low
 p257__load_low
 p258__load_low
 p259__load_low
 p260__load_low
 p261__load_low
 p262__load_low
 p263__load_low
 p264__load_low
 p265__load_low
 p266__load_low
 p267__load_low
 p268__load_low
 p269__load_low
 p270__load_low
 p271__load_low
 p272__load_low
 p273__load_low
 p274__load_low
 p275__load_low
 p276__load_low
 p277__load_low
 p278__load_low
 p279__load_low
 p280__load_low
 p281__load_low
 p282__load_low
 p283__load_low
 p284__load_low
 p285__load_low
 p286__load_low
 p287__load_low
 p288__load_low
 p289__load_low
 p290__load_low
 p291__load_low
 p292__load_low
 p293__load_low
 p294__load_low
 p295__load_low
 p296__load_low
 p297__load_low
 p298__load_low
 p299__load_low
 p300__load_low
 p301__load_low
 p302__load_low
 p303__load_low
 p304__load_low
 p305__load_low
 p306__load_low
 p307__load_low
 p308__load_low
 p309__load_low
 p310__load_low
 p311__load_low
 p312__load_low
 p313__load_low
 p314__load_low
 p315__load_low
 p316__load_low
 p317__load_low
 p318__load_low
 p319__load_low
 p320__load_low
 p321__load_low
 p322__load_low
 p323__load_low
 p324__load_low
 p325__load_low
 p326__load_low
 p327__load_low
 p328__load_low
 p329__load_low
 p330__load_low
 p331__load_low
 p332__load_low
 p333__load_low
 p334__load_low
 p335__load_low
 p336__load_low
 p337__load_low
 p338__load_low
 p339__load_low
 p340__load_low
 p341__load_low
 p342__load_low
 p343__load_low
 p344__load_low
 p345__load_low
 p346__load_low
 p347__load_low
 p348__load_low
 p349__load_low
 p350__load_low
 p351__load_low
 p352__load_low
 p353__load_low
 p354__load_low
 p355__load_low
 p356__load_low
 p357__load_low
 p358__load_low
 p359__load_low
 p360__load_low
 p361__load_low
 p362__load_low
 p363__load_low
 p364__load_low
 p365__load_low
 p366__load_low
 p367__load_low
 p368__load_low
 p369__load_low
 p370__load_low
 p371__load_low
 p372__load_low
 p373__load_low
 p374__load_low
 p375__load_low
 p376__load_low
 p377__load_low
 p378__load_low
 p379__load_low
 p380__load_low
 p381__load_low
 p382__load_low
 p383__load_low
 p384__load_low
 p385__load_low
 p386__load_low
 p387__load_low
 p388__load_low
 p389__load_low
 p390__load_low
 p391__load_low
 p392__load_low
 p393__load_low
 p394__load_low
 p395__load_low
 p396__load_low
 p397__load_low
 p398__load_low
 p399__load_low
 p400__load_low
 p401__load_low
 p402__load_low
 p403__load_low
 p404__load_low
 p405__load_low
 p406__load_low
 p407__load_low
 p408__load_low
 p409__load_low
 p410__load_low
 p411__load_low
 p412__load_low
 p413__load_low
 p414__load_low
 p415__load_low
 p416__load_low
 p417__load_low
 p418__load_low
 p419__load_low
 p420__load_low
 p421__load_low
 p422__load_low
 p423__load_low
 p424__load_low
 p425__load_low
 p426__load_low
 p427__load_low
 p428__load_low
 p429__load_low
 p430__load_low
 p431__load_low
 p432__load_low
 p433__load_low
 p434__load_low
 p435__load_low
 p436__load_low
 p437__load_low
 p438__load_low
 p439__load_low
 p440__load_low
 p441__load_low
 p442__load_low
 p443__load_low
 p444__load_low
 p445__load_low
 p446__load_low
 p447__load_low
 p448__load_low
 p449__load_low
 p450__load_low
 p451__load_low
 p452__load_low
 p453__load_low
 p454__load_low
 p455__load_low
 p456__load_low
 p457__load_low
 p458__load_low
 p459__load_low
 p460__load_low
 p461__load_low
 p462__load_low
 p463__load_low
 p464__load_low
 p465__load_low
 p466__load_low
 p467__load_low
 p468__load_low
 p469__load_low
 p470__load_low
 p471__load_low
 p472__load_low
 p473__load_low
 p474__load_low
 p475__load_low
 p476__load_low
 p477__load_low
 p478__load_low
 p479__load_low
 p480__load_low
 p481__load_low
 p482__load_low
 p483__load_low
 p484__load_low
 p485__load_low
 p486__load_low
 p487__load_low
 p488__load_low
 p489__load_low
 p490__load_low
 p491__load_low
 p492__load_low
 p493__load_low
 p494__load_low
 p495__load_low
 p496__load_low
 p497__load_low
 p498__load_low
 p499__load_low
 p500__load_low
 p501__load_low
 p502__load_low
 p503__load_low
 p504__load_low
 p505__load_low
 p506__load_low
 p507__load_low
 p508__load_low
 p509__load_low
 p510__load_low
 p511__load_low
 p512__load_low
 p513__load_low
 p514__load_low
 p515__load_low
 p516__load_low
 p517__load_low
 p518__load_low
 p519__load_low
 p520__load_low
 p521__load_low
 p522__load_low
 p523__load_low
 p524__load_low
 p525__load_low
 p526__load_low
 p527__load_low
 p528__load_low
 p529__load_low
 p530__load_low
 p531__load_low
 p532__load_low
 p533__load_low
 p534__load_low
 p535__load_low
 p536__load_low
 p537__load_low
 p538__load_low
 p539__load_low
 p540__load_low
 p541__load_low
 p542__load_low
 p543__load_low
 p544__load_low
 p545__load_low
 p546__load_low
 p547__load_low
 p548__load_low
 p549__load_low
 p550__load_low
 p551__load_low
 p552__load_low
 p553__load_low
 p554__load_low
 p555__load_low
 p556__load_low
 p557__load_low
 p558__load_low
 p559__load_low
 p560__load_low
 p561__load_low
 p562__load_low
 p563__load_low
 p564__load_low
 p565__load_low
 p566__load_low
 p567__load_low
 p568__load_low
 p569__load_low
 p570__load_low
 p571__load_low
 p572__load_low
 p573__load_low
 p574__load_low
 p575__load_low
 p576__load_low
 p577__load_low
 p578__load_low
 p579__load_low
 p580__load_low
 p581__load_low
 p582__load_low
 p583__load_low
 p584__load_low
 p585__load_low
 p586__load_low
 p587__load_low
 p588__load_low
 p589__load_low
 p590__load_low
 p591__load_low
 p592__load_low
 p593__load_low
 p594__load_low
 p595__load_low
 p596__load_low
 p597__load_low
 p598__load_low
 p599__load_low
 p600__load_low
 p601__load_low
 p602__load_low
 p603__load_low
 p604__load_low
 p605__load_low
 p606__load_low
 p607__load_low
 p608__load_low
 p609__load_low
 p610__load_low
 p611__load_low
 p612__load_low
 p613__load_low
 p614__load_low
 p615__load_low
 p616__load_low
 p617__load_low
 p618__load_low
 p619__load_low
 p620__load_low
 p621__load_low
 p622__load_low
 p623__load_low
 p624__load_low
 p625__load_low
 p626__load_low
 p627__load_low
 p628__load_low
 p629__load_low
 p630__load_low
 p631__load_low
 p632__load_low
 p633__load_low
 p634__load_low
 p635__load_low
 p636__load_low
 p637__load_low
 p638__load_low
 p639__load_low
 p640__load_low
 p641__load_low
 p642__load_low
 p643__load_low
 p644__load_low
 p645__load_low
 p646__load_low
 p647__load_low
 p648__load_low
 p649__load_low
 p650__load_low
 p651__load_low
 p652__load_low
 p653__load_low
 p654__load_low
 p655__load_low
 p656__load_low
 p657__load_low
 p658__load_low
 p659__load_low
 p660__load_low
 p661__load_low
 p662__load_low
 p663__load_low
 p664__load_low
 p665__load_low
 p666__load_low
 p667__load_low
 p668__load_low
 p669__load_low
 p670__load_low
 p671__load_low
 p672__load_low
 p673__load_low
 p674__load_low
 p675__load_low
 p676__load_low
 p677__load_low
 p678__load_low
 p679__load_low
 p680__load_low
 p681__load_low
 p682__load_low
 p683__load_low
 p684__load_low
 p685__load_low
 p686__load_low
 p687__load_low
 p688__load_low
 p689__load_low
 p690__load_low
 p691__load_low
 p692__load_low
 p693__load_low
 p694__load_low
 p695__load_low
 p696__load_low
 p697__load_low
 p698__load_low
 p699__load_low
 p700__load_low
 p701__load_low
 p702__load_low
 p703__load_low
 p704__load_low
 p705__load_low
 p706__load_low
 p707__load_low
 p708__load_low
 p709__load_low
 p710__load_low
 p711__load_low
 p712__load_low
 p713__load_low
 p714__load_low
 p715__load_low
 p716__load_low
 p717__load_low
 p718__load_low
 p719__load_low
 p720__load_low
 p721__load_low
 p722__load_low
 p723__load_low
 p724__load_low
 p725__load_low
 p726__load_low
 p727__load_low
 p728__load_low
 p729__load_low
 p730__load_low
 p731__load_low
 p732__load_low
 p733__load_low
 p734__load_low
 p735__load_low
 p736__load_low
 p737__load_low
 p738__load_low
 p739__load_low
 p740__load_low
 p741__load_low
 p742__load_low
 p743__load_low
 p744__load_low
 p745__load_low
 p746__load_low
 p747__load_low
 p748__load_low
 p749__load_low
 p750__load_low
 p751__load_low
 p752__load_low
 p753__load_low
 p754__load_low
 p755__load_low
 p756__load_low
 p757__load_low
 p758__load_low
 p759__load_low
 p760__load_low
 p761__load_low
 p762__load_low
 p763__load_low
 p764__load_low
 p765__load_low
 p766__load_low
 p767__load_low
 p768__load_low
 p769__load_low
 p770__load_low
 p771__load_low
 p772__load_low
 p773__load_low
 p774__load_low
 p775__load_low
 p776__load_low
 p777__load_low
 p778__load_low
 p779__load_low
 p780__load_low
 p781__load_low
 p782__load_low
 p783__load_low
 p784__load_low
 p785__load_low
 p786__load_low
 p787__load_low
 p788__load_low
 p789__load_low
 p790__load_low
 p791__load_low
 p792__load_low
 p793__load_low
 p794__load_low
 p795__load_low
 p796__load_low
 p797__load_low
 p798__load_low
 p799__load_low
 p800__load_low
 p801__load_low
 p802__load_low
 p803__load_low
 p804__load_low
 p805__load_low
 p806__load_low
 p807__load_low
 p808__load_low
 p809__load_low
 p810__load_low
 p811__load_low
 p812__load_low
 p813__load_low
 p814__load_low
 p815__load_low
 p816__load_low
 p817__load_low
 p818__load_low
 p819__load_low
 p820__load_low
 p821__load_low
 p822__load_low
 p823__load_low
 p824__load_low
 p825__load_low
 p826__load_low
 p827__load_low
 p828__load_low
 p829__load_low
 p830__load_low
 p831__load_low
 p832__load_low
 p833__load_low
 p834__load_low
 p835__load_low
 p836__load_low
 p837__load_low
 p838__load_low
 p839__load_low
 p840__load_low
 p841__load_low
 p842__load_low
 p843__load_low
 p844__load_low
 p845__load_low
 p846__load_low
 p847__load_low
 p848__load_low
 p849__load_low
 p850__load_low
 p851__load_low
 p852__load_low
 p853__load_low
 p854__load_low
 p855__load_low
 p856__load_low
 p857__load_low
 p858__load_low
 p859__load_low
 p860__load_low
 p861__load_low
 p862__load_low
 p863__load_low
 p864__load_low
 p865__load_low
 p866__load_low
 p867__load_low
 p868__load_low
 p869__load_low
 p870__load_low
 p871__load_low
 p872__load_low
 p873__load_low
 p874__load_low
 p875__load_low
 p876__load_low
 p877__load_low
 p878__load_low
 p879__load_low
 p880__load_low
 p881__load_low
 p882__load_low
 p883__load_low
 p884__load_low
 p885__load_low
 p886__load_low
 p887__load_low
 p888__load_low
 p889__load_low
 p890__load_low
 p891__load_low
 p892__load_low
 p893__load_low
 p894__load_low
 p895__load_low
 p896__load_low
 p897__load_low
 p898__load_low
 p899__load_low
 p900__load_low
 p901__load_low
 p902__load_low
 p903__load_low
 p904__load_low
 p905__load_low
 p906__load_low
 p907__load_low
 p908__load_low
 p909__load_low
 p910__load_low
 p911__load_low
 p912__load_low
 p913__load_low
 p914__load_low
 p915__load_low
 p916__load_low
 p917__load_low
 p918__load_low
 p919__load_low
 p920__load_low
 p921__load_low
 p922__load_low
 p923__load_low
 p924__load_low
 p925__load_low
 p926__load_low
 p927__load_low
 p928__load_low
 p929__load_low
 p930__load_low
 p931__load_low
 p932__load_low
 p933__load_low
 p934__load_low
 p935__load_low
 p936__load_low
 p937__load_low
 p938__load_low
 p939__load_low
 p940__load_low
 p941__load_low
 p942__load_low
 p943__load_low
 p944__load_low
 p945__load_low
 p946__load_low
 p947__load_low
 p948__load_low
 p949__load_low
 p950__load_low
 p951__load_low
 p952__load_low
 p953__load_low
 p954__load_low
 p955__load_low
 p956__load_low
 p957__load_low
 p958__load_low
 p959__load_low
 p960__load_low
 p961__load_low
 p962__load_low
 p963__load_low
 p964__load_low
 p965__load_low
 p966__load_low
 p967__load_low
 p968__load_low
 p969__load_low
 p970__load_low
 p971__load_low
 p972__load_low
 p973__load_low
 p974__load_low
 p975__load_low
 p976__load_low
 p977__load_low
 p978__load_low
 p979__load_low
 p980__load_low
 p981__load_low
 p982__load_low
 p983__load_low
 p984__load_low
 p985__load_low
 p986__load_low
 p987__load_low
 p988__load_low
 p989__load_low
 p990__load_low
 p991__load_low
 p992__load_low
 p993__load_low
 p994__load_low
 p995__load_low
 p996__load_low
 p997__load_low
 p998__load_low
 p999__load_low
 p1000__load_low
 p1001__load_low
 p1002__load_low
 p1003__load_low
 p1004__load_low
 p1005__load_low
 p1006__load_low
 p1007__load_low
 p1008__load_low
 p1009__load_low
 p1010__load_low
 p1011__load_low
 p1012__load_low
 p1013__load_low
 p1014__load_low
 p1015__load_low
 p1016__load_low
 p1017__load_low
 p1018__load_low
 p1019__load_low
 p1020__load_low
 p1021__load_low
 p1022__load_low
 p1023__load_low
 p1024__load_low
 p1__load_high
 p2__load_high
 p3__load_high
 p4__load_high
 p5__load_high
 p6__load_high
 p7__load_high
 p8__load_high
 p9__load_high
 p10__load_high
 p11__load_high
 p12__load_high
 p13__load_high
 p14__load_high
 p15__load_high
 p16__load_high
 p17__load_high
 p18__load_high
 p19__load_high
 p20__load_high
 p21__load_high
 p22__load_high
 p23__load_high
 p24__load_high
 p25__load_high
 p26__load_high
 p27__load_high
 p28__load_high
 p29__load_high
 p30__load_high
 p31__load_high
 p32__load_high
 p33__load_high
 p34__load_high
 p35__load_high
 p36__load_high
 p37__load_high
 p38__load_high
 p39__load_high
 p40__load_high
 p41__load_high
 p42__load_high
 p43__load_high
 p44__load_high
 p45__load_high
 p46__load_high
 p47__load_high
 p48__load_high
 p49__load_high
 p50__load_high
 p51__load_high
 p52__load_high
 p53__load_high
 p54__load_high
 p55__load_high
 p56__load_high
 p57__load_high
 p58__load_high
 p59__load_high
 p60__load_high
 p61__load_high
 p62__load_high
 p63__load_high
 p64__load_high
 p65__load_high
 p66__load_high
 p67__load_high
 p68__load_high
 p69__load_high
 p70__load_high
 p71__load_high
 p72__load_high
 p73__load_high
 p74__load_high
 p75__load_high
 p76__load_high
 p77__load_high
 p78__load_high
 p79__load_high
 p80__load_high
 p81__load_high
 p82__load_high
 p83__load_high
 p84__load_high
 p85__load_high
 p86__load_high
 p87__load_high
 p88__load_high
 p89__load_high
 p90__load_high
 p91__load_high
 p92__load_high
 p93__load_high
 p94__load_high
 p95__load_high
 p96__load_high
 p97__load_high
 p98__load_high
 p99__load_high
 p100__load_high
 p101__load_high
 p102__load_high
 p103__load_high
 p104__load_high
 p105__load_high
 p106__load_high
 p107__load_high
 p108__load_high
 p109__load_high
 p110__load_high
 p111__load_high
 p112__load_high
 p113__load_high
 p114__load_high
 p115__load_high
 p116__load_high
 p117__load_high
 p118__load_high
 p119__load_high
 p120__load_high
 p121__load_high
 p122__load_high
 p123__load_high
 p124__load_high
 p125__load_high
 p126__load_high
 p127__load_high
 p128__load_high
 p129__load_high
 p130__load_high
 p131__load_high
 p132__load_high
 p133__load_high
 p134__load_high
 p135__load_high
 p136__load_high
 p137__load_high
 p138__load_high
 p139__load_high
 p140__load_high
 p141__load_high
 p142__load_high
 p143__load_high
 p144__load_high
 p145__load_high
 p146__load_high
 p147__load_high
 p148__load_high
 p149__load_high
 p150__load_high
 p151__load_high
 p152__load_high
 p153__load_high
 p154__load_high
 p155__load_high
 p156__load_high
 p157__load_high
 p158__load_high
 p159__load_high
 p160__load_high
 p161__load_high
 p162__load_high
 p163__load_high
 p164__load_high
 p165__load_high
 p166__load_high
 p167__load_high
 p168__load_high
 p169__load_high
 p170__load_high
 p171__load_high
 p172__load_high
 p173__load_high
 p174__load_high
 p175__load_high
 p176__load_high
 p177__load_high
 p178__load_high
 p179__load_high
 p180__load_high
 p181__load_high
 p182__load_high
 p183__load_high
 p184__load_high
 p185__load_high
 p186__load_high
 p187__load_high
 p188__load_high
 p189__load_high
 p190__load_high
 p191__load_high
 p192__load_high
 p193__load_high
 p194__load_high
 p195__load_high
 p196__load_high
 p197__load_high
 p198__load_high
 p199__load_high
 p200__load_high
 p201__load_high
 p202__load_high
 p203__load_high
 p204__load_high
 p205__load_high
 p206__load_high
 p207__load_high
 p208__load_high
 p209__load_high
 p210__load_high
 p211__load_high
 p212__load_high
 p213__load_high
 p214__load_high
 p215__load_high
 p216__load_high
 p217__load_high
 p218__load_high
 p219__load_high
 p220__load_high
 p221__load_high
 p222__load_high
 p223__load_high
 p224__load_high
 p225__load_high
 p226__load_high
 p227__load_high
 p228__load_high
 p229__load_high
 p230__load_high
 p231__load_high
 p232__load_high
 p233__load_high
 p234__load_high
 p235__load_high
 p236__load_high
 p237__load_high
 p238__load_high
 p239__load_high
 p240__load_high
 p241__load_high
 p242__load_high
 p243__load_high
 p244__load_high
 p245__load_high
 p246__load_high
 p247__load_high
 p248__load_high
 p249__load_high
 p250__load_high
 p251__load_high
 p252__load_high
 p253__load_high
 p254__load_high
 p255__load_high
 p256__load_high
 p257__load_high
 p258__load_high
 p259__load_high
 p260__load_high
 p261__load_high
 p262__load_high
 p263__load_high
 p264__load_high
 p265__load_high
 p266__load_high
 p267__load_high
 p268__load_high
 p269__load_high
 p270__load_high
 p271__load_high
 p272__load_high
 p273__load_high
 p274__load_high
 p275__load_high
 p276__load_high
 p277__load_high
 p278__load_high
 p279__load_high
 p280__load_high
 p281__load_high
 p282__load_high
 p283__load_high
 p284__load_high
 p285__load_high
 p286__load_high
 p287__load_high
 p288__load_high
 p289__load_high
 p290__load_high
 p291__load_high
 p292__load_high
 p293__load_high
 p294__load_high
 p295__load_high
 p296__load_high
 p297__load_high
 p298__load_high
 p299__load_high
 p300__load_high
 p301__load_high
 p302__load_high
 p303__load_high
 p304__load_high
 p305__load_high
 p306__load_high
 p307__load_high
 p308__load_high
 p309__load_high
 p310__load_high
 p311__load_high
 p312__load_high
 p313__load_high
 p314__load_high
 p315__load_high
 p316__load_high
 p317__load_high
 p318__load_high
 p319__load_high
 p320__load_high
 p321__load_high
 p322__load_high
 p323__load_high
 p324__load_high
 p325__load_high
 p326__load_high
 p327__load_high
 p328__load_high
 p329__load_high
 p330__load_high
 p331__load_high
 p332__load_high
 p333__load_high
 p334__load_high
 p335__load_high
 p336__load_high
 p337__load_high
 p338__load_high
 p339__load_high
 p340__load_high
 p341__load_high
 p342__load_high
 p343__load_high
 p344__load_high
 p345__load_high
 p346__load_high
 p347__load_high
 p348__load_high
 p349__load_high
 p350__load_high
 p351__load_high
 p352__load_high
 p353__load_high
 p354__load_high
 p355__load_high
 p356__load_high
 p357__load_high
 p358__load_high
 p359__load_high
 p360__load_high
 p361__load_high
 p362__load_high
 p363__load_high
 p364__load_high
 p365__load_high
 p366__load_high
 p367__load_high
 p368__load_high
 p369__load_high
 p370__load_high
 p371__load_high
 p372__load_high
 p373__load_high
 p374__load_high
 p375__load_high
 p376__load_high
 p377__load_high
 p378__load_high
 p379__load_high
 p380__load_high
 p381__load_high
 p382__load_high
 p383__load_high
 p384__load_high
 p385__load_high
 p386__load_high
 p387__load_high
 p388__load_high
 p389__load_high
 p390__load_high
 p391__load_high
 p392__load_high
 p393__load_high
 p394__load_high
 p395__load_high
 p396__load_high
 p397__load_high
 p398__load_high
 p399__load_high
 p400__load_high
 p401__load_high
 p402__load_high
 p403__load_high
 p404__load_high
 p405__load_high
 p406__load_high
 p407__load_high
 p408__load_high
 p409__load_high
 p410__load_high
 p411__load_high
 p412__load_high
 p413__load_high
 p414__load_high
 p415__load_high
 p416__load_high
 p417__load_high
 p418__load_high
 p419__load_high
 p420__load_high
 p421__load_high
 p422__load_high
 p423__load_high
 p424__load_high
 p425__load_high
 p426__load_high
 p427__load_high
 p428__load_high
 p429__load_high
 p430__load_high
 p431__load_high
 p432__load_high
 p433__load_high
 p434__load_high
 p435__load_high
 p436__load_high
 p437__load_high
 p438__load_high
 p439__load_high
 p440__load_high
 p441__load_high
 p442__load_high
 p443__load_high
 p444__load_high
 p445__load_high
 p446__load_high
 p447__load_high
 p448__load_high
 p449__load_high
 p450__load_high
 p451__load_high
 p452__load_high
 p453__load_high
 p454__load_high
 p455__load_high
 p456__load_high
 p457__load_high
 p458__load_high
 p459__load_high
 p460__load_high
 p461__load_high
 p462__load_high
 p463__load_high
 p464__load_high
 p465__load_high
 p466__load_high
 p467__load_high
 p468__load_high
 p469__load_high
 p470__load_high
 p471__load_high
 p472__load_high
 p473__load_high
 p474__load_high
 p475__load_high
 p476__load_high
 p477__load_high
 p478__load_high
 p479__load_high
 p480__load_high
 p481__load_high
 p482__load_high
 p483__load_high
 p484__load_high
 p485__load_high
 p486__load_high
 p487__load_high
 p488__load_high
 p489__load_high
 p490__load_high
 p491__load_high
 p492__load_high
 p493__load_high
 p494__load_high
 p495__load_high
 p496__load_high
 p497__load_high
 p498__load_high
 p499__load_high
 p500__load_high
 p501__load_high
 p502__load_high
 p503__load_high
 p504__load_high
 p505__load_high
 p506__load_high
 p507__load_high
 p508__load_high
 p509__load_high
 p510__load_high
 p511__load_high
 p512__load_high
 p513__load_high
 p514__load_high
 p515__load_high
 p516__load_high
 p517__load_high
 p518__load_high
 p519__load_high
 p520__load_high
 p521__load_high
 p522__load_high
 p523__load_high
 p524__load_high
 p525__load_high
 p526__load_high
 p527__load_high
 p528__load_high
 p529__load_high
 p530__load_high
 p531__load_high
 p532__load_high
 p533__load_high
 p534__load_high
 p535__load_high
 p536__load_high
 p537__load_high
 p538__load_high
 p539__load_high
 p540__load_high
 p541__load_high
 p542__load_high
 p543__load_high
 p544__load_high
 p545__load_high
 p546__load_high
 p547__load_high
 p548__load_high
 p549__load_high
 p550__load_high
 p551__load_high
 p552__load_high
 p553__load_high
 p554__load_high
 p555__load_high
 p556__load_high
 p557__load_high
 p558__load_high
 p559__load_high
 p560__load_high
 p561__load_high
 p562__load_high
 p563__load_high
 p564__load_high
 p565__load_high
 p566__load_high
 p567__load_high
 p568__load_high
 p569__load_high
 p570__load_high
 p571__load_high
 p572__load_high
 p573__load_high
 p574__load_high
 p575__load_high
 p576__load_high
 p577__load_high
 p578__load_high
 p579__load_high
 p580__load_high
 p581__load_high
 p582__load_high
 p583__load_high
 p584__load_high
 p585__load_high
 p586__load_high
 p587__load_high
 p588__load_high
 p589__load_high
 p590__load_high
 p591__load_high
 p592__load_high
 p593__load_high
 p594__load_high
 p595__load_high
 p596__load_high
 p597__load_high
 p598__load_high
 p599__load_high
 p600__load_high
 p601__load_high
 p602__load_high
 p603__load_high
 p604__load_high
 p605__load_high
 p606__load_high
 p607__load_high
 p608__load_high
 p609__load_high
 p610__load_high
 p611__load_high
 p612__load_high
 p613__load_high
 p614__load_high
 p615__load_high
 p616__load_high
 p617__load_high
 p618__load_high
 p619__load_high
 p620__load_high
 p621__load_high
 p622__load_high
 p623__load_high
 p624__load_high
 p625__load_high
 p626__load_high
 p627__load_high
 p628__load_high
 p629__load_high
 p630__load_high
 p631__load_high
 p632__load_high
 p633__load_high
 p634__load_high
 p635__load_high
 p636__load_high
 p637__load_high
 p638__load_high
 p639__load_high
 p640__load_high
 p641__load_high
 p642__load_high
 p643__load_high
 p644__load_high
 p645__load_high
 p646__load_high
 p647__load_high
 p648__load_high
 p649__load_high
 p650__load_high
 p651__load_high
 p652__load_high
 p653__load_high
 p654__load_high
 p655__load_high
 p656__load_high
 p657__load_high
 p658__load_high
 p659__load_high
 p660__load_high
 p661__load_high
 p662__load_high
 p663__load_high
 p664__load_high
 p665__load_high
 p666__load_high
 p667__load_high
 p668__load_high
 p669__load_high
 p670__load_high
 p671__load_high
 p672__load_high
 p673__load_high
 p674__load_high
 p675__load_high
 p676__load_high
 p677__load_high
 p678__load_high
 p679__load_high
 p680__load_high
 p681__load_high
 p682__load_high
 p683__load_high
 p684__load_high
 p685__load_high
 p686__load_high
 p687__load_high
 p688__load_high
 p689__load_high
 p690__load_high
 p691__load_high
 p692__load_high
 p693__load_high
 p694__load_high
 p695__load_high
 p696__load_high
 p697__load_high
 p698__load_high
 p699__load_high
 p700__load_high
 p701__load_high
 p702__load_high
 p703__load_high
 p704__load_high
 p705__load_high
 p706__load_high
 p707__load_high
 p708__load_high
 p709__load_high
 p710__load_high
 p711__load_high
 p712__load_high
 p713__load_high
 p714__load_high
 p715__load_high
 p716__load_high
 p717__load_high
 p718__load_high
 p719__load_high
 p720__load_high
 p721__load_high
 p722__load_high
 p723__load_high
 p724__load_high
 p725__load_high
 p726__load_high
 p727__load_high
 p728__load_high
 p729__load_high
 p730__load_high
 p731__load_high
 p732__load_high
 p733__load_high
 p734__load_high
 p735__load_high
 p736__load_high
 p737__load_high
 p738__load_high
 p739__load_high
 p740__load_high
 p741__load_high
 p742__load_high
 p743__load_high
 p744__load_high
 p745__load_high
 p746__load_high
 p747__load_high
 p748__load_high
 p749__load_high
 p750__load_high
 p751__load_high
 p752__load_high
 p753__load_high
 p754__load_high
 p755__load_high
 p756__load_high
 p757__load_high
 p758__load_high
 p759__load_high
 p760__load_high
 p761__load_high
 p762__load_high
 p763__load_high
 p764__load_high
 p765__load_high
 p766__load_high
 p767__load_high
 p768__load_high
 p769__load_high
 p770__load_high
 p771__load_high
 p772__load_high
 p773__load_high
 p774__load_high
 p775__load_high
 p776__load_high
 p777__load_high
 p778__load_high
 p779__load_high
 p780__load_high
 p781__load_high
 p782__load_high
 p783__load_high
 p784__load_high
 p785__load_high
 p786__load_high
 p787__load_high
 p788__load_high
 p789__load_high
 p790__load_high
 p791__load_high
 p792__load_high
 p793__load_high
 p794__load_high
 p795__load_high
 p796__load_high
 p797__load_high
 p798__load_high
 p799__load_high
 p800__load_high
 p801__load_high
 p802__load_high
 p803__load_high
 p804__load_high
 p805__load_high
 p806__load_high
 p807__load_high
 p808__load_high
 p809__load_high
 p810__load_high
 p811__load_high
 p812__load_high
 p813__load_high
 p814__load_high
 p815__load_high
 p816__load_high
 p817__load_high
 p818__load_high
 p819__load_high
 p820__load_high
 p821__load_high
 p822__load_high
 p823__load_high
 p824__load_high
 p825__load_high
 p826__load_high
 p827__load_high
 p828__load_high
 p829__load_high
 p830__load_high
 p831__load_high
 p832__load_high
 p833__load_high
 p834__load_high
 p835__load_high
 p836__load_high
 p837__load_high
 p838__load_high
 p839__load_high
 p840__load_high
 p841__load_high
 p842__load_high
 p843__load_high
 p844__load_high
 p845__load_high
 p846__load_high
 p847__load_high
 p848__load_high
 p849__load_high
 p850__load_high
 p851__load_high
 p852__load_high
 p853__load_high
 p854__load_high
 p855__load_high
 p856__load_high
 p857__load_high
 p858__load_high
 p859__load_high
 p860__load_high
 p861__load_high
 p862__load_high
 p863__load_high
 p864__load_high
 p865__load_high
 p866__load_high
 p867__load_high
 p868__load_high
 p869__load_high
 p870__load_high
 p871__load_high
 p872__load_high
 p873__load_high
 p874__load_high
 p875__load_high
 p876__load_high
 p877__load_high
 p878__load_high
 p879__load_high
 p880__load_high
 p881__load_high
 p882__load_high
 p883__load_high
 p884__load_high
 p885__load_high
 p886__load_high
 p887__load_high
 p888__load_high
 p889__load_high
 p890__load_high
 p891__load_high
 p892__load_high
 p893__load_high
 p894__load_high
 p895__load_high
 p896__load_high
 p897__load_high
 p898__load_high
 p899__load_high
 p900__load_high
 p901__load_high
 p902__load_high
 p903__load_high
 p904__load_high
 p905__load_high
 p906__load_high
 p907__load_high
 p908__load_high
 p909__load_high
 p910__load_high
 p911__load_high
 p912__load_high
 p913__load_high
 p914__load_high
 p915__load_high
 p916__load_high
 p917__load_high
 p918__load_high
 p919__load_high
 p920__load_high
 p921__load_high
 p922__load_high
 p923__load_high
 p924__load_high
 p925__load_high
 p926__load_high
 p927__load_high
 p928__load_high
 p929__load_high
 p930__load_high
 p931__load_high
 p932__load_high
 p933__load_high
 p934__load_high
 p935__load_high
 p936__load_high
 p937__load_high
 p938__load_high
 p939__load_high
 p940__load_high
 p941__load_high
 p942__load_high
 p943__load_high
 p944__load_high
 p945__load_high
 p946__load_high
 p947__load_high
 p948__load_high
 p949__load_high
 p950__load_high
 p951__load_high
 p952__load_high
 p953__load_high
 p954__load_high
 p955__load_high
 p956__load_high
 p957__load_high
 p958__load_high
 p959__load_high
 p960__load_high
 p961__load_high
 p962__load_high
 p963__load_high
 p964__load_high
 p965__load_high
 p966__load_high
 p967__load_high
 p968__load_high
 p969__load_high
 p970__load_high
 p971__load_high
 p972__load_high
 p973__load_high
 p974__load_high
 p975__load_high
 p976__load_high
 p977__load_high
 p978__load_high
 p979__load_high
 p980__load_high
 p981__load_high
 p982__load_high
 p983__load_high
 p984__load_high
 p985__load_high
 p986__load_high
 p987__load_high
 p988__load_high
 p989__load_high
 p990__load_high
 p991__load_high
 p992__load_high
 p993__load_high
 p994__load_high
 p995__load_high
 p996__load_high
 p997__load_high
 p998__load_high
 p999__load_high
 p1000__load_high
 p1001__load_high
 p1002__load_high
 p1003__load_high
 p1004__load_high
 p1005__load_high
 p1006__load_high
 p1007__load_high
 p1008__load_high
 p1009__load_high
 p1010__load_high
 p1011__load_high
 p1012__load_high
 p1013__load_high
 p1014__load_high
 p1015__load_high
 p1016__load_high
 p1017__load_high
 p1018__load_high
 p1019__load_high
 p1020__load_high
 p1021__load_high
 p1022__load_high
 p1023__load_high
 p1024__load_high
End
