\ Boolean forbidden-tuple encoding
Minimize
 obj: 0
Subject To
 c0_load_low__t1: p1 >= 1
 c1_load_low__t2: - p2 >= 0
 c2_load_low__t3: - p3 >= 0
 c3_load_low__t4: - p4 >= 0
 c4_load_low__t5: - p5 >= 0
 c5_load_low__t6: - p6 >= 0
 c6_load_low__t7: - p7 >= 0
 c7_load_low__t8: - p8 >= 0
 c8_load_low__t9: - p9 >= 0
 c9_load_low__t10: - p10 >= 0
 c10_load_low__t11: - p11 >= 0
 c11_load_low__t12: - p12 >= 0
 c12_load_low__t13: - p13 >= 0
 c13_load_low__t14: - p14 >= 0
 c14_load_low__t15: - p15 >= 0
 c15_load_low__t16: - p16 >= 0
 c16_load_low__t17: - p17 >= 0
 c17_load_low__t18: - p18 >= 0
 c18_load_low__t19: - p19 >= 0
 c19_load_low__t20: - p20 >= 0
 c20_load_low__t21: - p21 >= 0
 c21_load_low__t22: - p22 >= 0
 c22_load_low__t23: - p23 >= 0
 c23_load_low__t24: - p24 >= 0
 c24_load_low__t25: - p25 >= 0
 c25_load_low__t26: - p26 >= 0
 c26_load_low__t27: - p27 >= 0
 c27_load_low__t28: - p28 >= 0
 c28_load_low__t29: - p29 >= 0
 c29_load_low__t30: - p30 >= 0
 c30_load_low__t31: - p31 >= 0
 c31_load_low__t32: - p32 >= 0
 c32_load_low__t33: - p33 >= 0
 c33_load_low__t34: - p34 >= 0
 c34_load_low__t35: - p35 >= 0
 c35_load_low__t36: - p36 >= 0
 c36_load_low__t37: - p37 >= 0
 c37_load_low__t38: - p38 >= 0
 c38_load_low__t39: - p39 >= 0
 c39_load_low__t40: - p40 >= 0
 c40_load_low__t41: - p41 >= 0
 c41_load_low__t42: - p42 >= 0
 c42_load_low__t43: - p43 >= 0
 c43_load_low__t44: - p44 >= 0
 c44_load_low__t45: - p45 >= 0
 c45_load_low__t46: - p46 >= 0
 c46_load_low__t47: - p47 >= 0
 c47_load_low__t48: - p48 >= 0
 c48_load_low__t49: - p49 >= 0
 c49_load_low__t50: - p50 >= 0
 c50_load_low__t51: - p51 >= 0
 c51_load_low__t52: - p52 >= 0
 c52_load_low__t53: - p53 >= 0
 c53_load_low__t54: - p54 >= 0
 c54_load_low__t55: - p55 >= 0
 c55_load_low__t56: - p56 >= 0
 c56_load_low__t57: - p57 >= 0
 c57_load_low__t58: - p58 >= 0
 c58_load_low__t59: - p59 >= 0
 c59_load_low__t60: - p60 >= 0
 c60_load_low__t61: - p61 >= 0
 c61_load_low__t62: - p62 >= 0
 c62_load_low__t63: - p63 >= 0
 c63_load_low__t64: - p64 >= 0
 c64_load_low__t65: - p65 >= 0
 c65_load_low__t66: - p66 >= 0
 c66_load_low__t67: - p67 >= 0
 c67_load_low__t68: - p68 >= 0
 c68_load_low__t69: - p69 >= 0
 c69_load_low__t70: - p70 >= 0
 c70_load_low__t71: - p71 >= 0
 c71_load_low__t72: - p72 >= 0
 c72_load_low__t73: - p73 >= 0
 c73_load_low__t74: - p74 >= 0
 c74_load_low__t75: - p75 >= 0
 c75_load_low__t76: - p76 >= 0
 c76_load_low__t77: - p77 >= 0
 c77_load_low__t78: - p78 >= 0
 c78_load_low__t79: - p79 >= 0
 c79_load_low__t80: - p80 >= 0
 c80_load_low__t81: - p81 >= 0
 c81_load_low__t82: - p82 >= 0
 c82_load_low__t83: - p83 >= 0
 c83_load_low__t84: - p84 >= 0
 c84_load_low__t85: - p85 >= 0
 c85_load_low__t86: - p86 >= 0
 c86_load_low__t87: - p87 >= 0
 c87_load_low__t88: - p88 >= 0
 c88_load_low__t89: - p89 >= 0
 c89_load_low__t90: - p90 >= 0
 c90_load_low__t91: - p91 >= 0
 c91_load_low__t92: - p92 >= 0
 c92_load_low__t93: - p93 >= 0
 c93_load_low__t94: - p94 >= 0
 c94_load_low__t95: - p95 >= 0
 c95_load_low__t96: - p96 >= 0
 c96_load_low__t97: - p97 >= 0
 c97_load_low__t98: - p98 >= 0
 c98_load_low__t99: - p99 >= 0
 c99_load_low__t100: - p100 >= 0
 c100_load_low__t101: - p101 >= 0
 c101_load_low__t102: - p102 >= 0
 c102_load_low__t103: - p103 >= 0
 c103_load_low__t104: - p104 >= 0
 c104_load_low__t105: - p105 >= 0
 c105_load_low__t106: - p106 >= 0
 c106_load_low__t107: - p107 >= 0
 c107_load_low__t108: - p108 >= 0
 c108_load_low__t109: - p109 >= 0
 c109_load_low__t110: - p110 >= 0
 c110_load_low__t111: - p111 >= 0
 c111_load_low__t112: - p112 >= 0
 c112_load_low__t113: - p113 >= 0
 c113_load_low__t114: - p114 >= 0
 c114_load_low__t115: - p115 >= 0
 c115_load_low__t116: - p116 >= 0
 c116_load_low__t117: - p117 >= 0
 c117_load_low__t118: - p118 >= 0
 c118_load_low__t119: - p119 >= 0
 c119_load_low__t120: - p120 >= 0
 c120_load_low__t121: - p121 >= 0
 c121_load_low__t122: - p122 >= 0
 c122_load_low__t123: - p123 >= 0
 c123_load_low__t124: - p124 >= 0
 c124_load_low__t125: - p125 >= 0
 c125_load_low__t126: - p126 >= 0
 c126_load_low__t127: - p127 >= 0
 c127_load_low__t128: - p128 >= 0
 c128_load_low__t129: - p129 >= 0
 c129_load_low__t130: - p130 >= 0
 c130_load_low__t131: - p131 >= 0
 c131_load_low__t132: - p132 >= 0
 c132_load_low__t133: - p133 >= 0
 c133_load_low__t134: - p134 >= 0
 c134_load_low__t135: - p135 >= 0
 c135_load_low__t136: - p136 >= 0
 c136_load_low__t137: - p137 >= 0
 c137_load_low__t138: - p138 >= 0
 c138_load_low__t139: - p139 >= 0
 c139_load_low__t140: - p140 >= 0
 c140_load_low__t141: - p141 >= 0
 c141_load_low__t142: - p142 >= 0
 c142_load_low__t143: - p143 >= 0
 c143_load_low__t144: - p144 >= 0
 c144_load_low__t145: - p145 >= 0
 c145_load_low__t146: - p146 >= 0
 c146_load_low__t147: - p147 >= 0
 c147_load_low__t148: - p148 >= 0
 c148_load_low__t149: - p149 >= 0
 c149_load_low__t150: - p150 >= 0
 c150_load_low__t151: - p151 >= 0
 c151_load_low__t152: - p152 >= 0
 c152_load_low__t153: - p153 >= 0
 c153_load_low__t154: - p154 >= 0
 c154_load_low__t155: - p155 >= 0
 c155_load_low__t156: - p156 >= 0
 c156_load_low__t157: - p157 >= 0
 c157_load_low__t158: - p158 >= 0
 c158_load_low__t159: - p159 >= 0
 c159_load_low__t160: - p160 >= 0
 c160_load_low__t161: - p161 >= 0
 c161_load_low__t162: - p162 >= 0
 c162_load_low__t163: - p163 >= 0
 c163_load_low__t164: - p164 >= 0
 c164_load_low__t165: - p165 >= 0
 c165_load_low__t166: - p166 >= 0
 c166_load_low__t167: - p167 >= 0
 c167_load_low__t168: - p168 >= 0
 c168_load_low__t169: - p169 >= 0
 c169_load_low__t170: - p170 >= 0
 c170_load_low__t171: - p171 >= 0
 c171_load_low__t172: - p172 >= 0
 c172_load_low__t173: - p173 >= 0
 c173_load_low__t174: - p174 >= 0
 c174_load_low__t175: - p175 >= 0
 c175_load_low__t176: - p176 >= 0
 c176_load_low__t177: - p177 >= 0
 c177_load_low__t178: - p178 >= 0
 c178_load_low__t179: - p179 >= 0
 c179_load_low__t180: - p180 >= 0
 c180_load_low__t181: - p181 >= 0
 c181_load_low__t182: - p182 >= 0
 c182_load_low__t183: - p183 >= 0
 c183_load_low__t184: - p184 >= 0
 c184_load_low__t185: - p185 >= 0
 c185_load_low__t186: - p186 >= 0
 c186_load_low__t187: - p187 >= 0
 c187_load_low__t188: - p188 >= 0
 c188_load_low__t189: - p189 >= 0
 c189_load_low__t190: - p190 >= 0
 c190_load_low__t191: - p191 >= 0
 c191_load_low__t192: - p192 >= 0
 c192_load_low__t193: - p193 >= 0
 c193_load_low__t194: - p194 >= 0
 c194_load_low__t195: - p195 >= 0
 c195_load_low__t196: - p196 >= 0
 c196_load_low__t197: - p197 >= 0
 c197_load_low__t198: - p198 >= 0
 c198_load_low__t199: - p199 >= 0
 c199_load_low__t200: - p200 >= 0
 c200_load_low__t201: - p201 >= 0
 c201_load_low__t202: - p202 >= 0
 c202_load_low__t203: - p203 >= 0
 c203_load_low__t204: - p204 >= 0
 c204_load_low__t205: - p205 >= 0
 c205_load_low__t206: - p206 >= 0
 c206_load_low__t207: - p207 >= 0
 c207_load_low__t208: - p208 >= 0
 c208_load_low__t209: - p209 >= 0
 c209_load_low__t210: - p210 >= 0
 c210_load_low__t211: - p211 >= 0
 c211_load_low__t212: - p212 >= 0
 c212_load_low__t213: - p213 >= 0
 c213_load_low__t214: - p214 >= 0
 c214_load_low__t215: - p215 >= 0
 c215_load_low__t216: - p216 >= 0
 c216_load_low__t217: - p217 >= 0
 c217_load_low__t218: - p218 >= 0
 c218_load_low__t219: - p219 >= 0
 c219_load_low__t220: - p220 >= 0
 c220_load_low__t221: - p221 >= 0
 c221_load_low__t222: - p222 >= 0
 c222_load_low__t223: - p223 >= 0
 c223_load_low__t224: - p224 >= 0
 c224_load_low__t225: - p225 >= 0
 c225_load_low__t226: - p226 >= 0
 c226_load_low__t227: - p227 >= 0
 c227_load_low__t228: - p228 >= 0
 c228_load_low__t229: - p229 >= 0
 c229_load_low__t230: - p230 >= 0
 c230_load_low__t231: - p231 >= 0
 c231_load_low__t232: - p232 >= 0
 c232_load_low__t233: - p233 >= 0
 c233_load_low__t234: - p234 >= 0
 c234_load_low__t235: - p235 >= 0
 c235_load_low__t236: - p236 >= 0
 c236_load_low__t237: - p237 >= 0
 c237_load_low__t238: - p238 >= 0
 c238_load_low__t239: - p239 >= 0
 c239_load_low__t240: - p240 >= 0
 c240_load_low__t241: - p241 >= 0
 c241_load_low__t242: - p242 >= 0
 c242_load_low__t243: - p243 >= 0
 c243_load_low__t244: - p244 >= 0
 c244_load_low__t245: - p245 >= 0
 c245_load_low__t246: - p246 >= 0
 c246_load_low__t247: - p247 >= 0
 c247_load_low__t248: - p248 >= 0
 c248_load_low__t249: - p249 >= 0
 c249_load_low__t250: - p250 >= 0
 c250_load_low__t251: - p251 >= 0
 c251_load_low__t252: - p252 >= 0
 c252_load_low__t253: - p253 >= 0
 c253_load_low__t254: - p254 >= 0
 c254_load_low__t255: - p255 >= 0
 c255_load_low__t256: - p256 >= 0
 c256_load_high__t1: p1 >= 1
 c257_load_high__t2: p2 >= 1
 c258_load_high__t3: p3 >= 1
 c259_load_high__t4: p4 >= 1
 c260_load_high__t5: p5 >= 1
 c261_load_high__t6: p6 >= 1
 c262_load_high__t7: p7 >= 1
 c263_load_high__t8: p8 >= 1
 c264_load_high__t9: p9 >= 1
 c265_load_high__t10: p10 >= 1
 c266_load_high__t11: p11 >= 1
 c267_load_high__t12: p12 >= 1
 c268_load_high__t13: p13 >= 1
 c269_load_high__t14: p14 >= 1
 c270_load_high__t15: p15 >= 1
 c271_load_high__t16: p16 >= 1
 c272_load_high__t17: p17 >= 1
 c273_load_high__t18: p18 >= 1
 c274_load_high__t19: p19 >= 1
 c275_load_high__t20: p20 >= 1
 c276_load_high__t21: p21 >= 1
 c277_load_high__t22: p22 >= 1
 c278_load_high__t23: p23 >= 1
 c279_load_high__t24: p24 >= 1
 c280_load_high__t25: p25 >= 1
 c281_load_high__t26: p26 >= 1
 c282_load_high__t27: p27 >= 1
 c283_load_high__t28: p28 >= 1
 c284_load_high__t29: p29 >= 1
 c285_load_high__t30: p30 >= 1
 c286_load_high__t31: p31 >= 1
 c287_load_high__t32: p32 >= 1
 c288_load_high__t33: p33 >= 1
 c289_load_high__t34: p34 >= 1
 c290_load_high__t35: p35 >= 1
 c291_load_high__t36: p36 >= 1
 c292_load_high__t37: p37 >= 1
 c293_load_high__t38: p38 >= 1
 c294_load_high__t39: p39 >= 1
 c295_load_high__t40: p40 >= 1
 c296_load_high__t41: p41 >= 1
 c297_load_high__t42: p42 >= 1
 c298_load_high__t43: p43 >= 1
 c299_load_high__t44: p44 >= 1
 c300_load_high__t45: p45 >= 1
 c301_load_high__t46: p46 >= 1
 c302_load_high__t47: p47 >= 1
 c303_load_high__t48: p48 >= 1
 c304_load_high__t49: p49 >= 1
 c305_load_high__t50: p50 >= 1
 c306_load_high__t51: p51 >= 1
 c307_load_high__t52: p52 >= 1
 c308_load_high__t53: p53 >= 1
 c309_load_high__t54: p54 >= 1
 c310_load_high__t55: p55 >= 1
 c311_load_high__t56: p56 >= 1
 c312_load_high__t57: p57 >= 1
 c313_load_high__t58: p58 >= 1
 c314_load_high__t59: p59 >= 1
 c315_load_high__t60: p60 >= 1
 c316_load_high__t61: p61 >= 1
 c317_load_high__t62: p62 >= 1
 c318_load_high__t63: p63 >= 1
 c319_load_high__t64: p64 >= 1
 c320_load_high__t65: p65 >= 1
 c321_load_high__t66: p66 >= 1
 c322_load_high__t67: p67 >= 1
 c323_load_high__t68: p68 >= 1
 c324_load_high__t69: p69 >= 1
 c325_load_high__t70: p70 >= 1
 c326_load_high__t71: p71 >= 1
 c327_load_high__t72: p72 >= 1
 c328_load_high__t73: p73 >= 1
 c329_load_high__t74: p74 >= 1
 c330_load_high__t75: p75 >= 1
 c331_load_high__t76: p76 >= 1
 c332_load_high__t77: p77 >= 1
 c333_load_high__t78: p78 >= 1
 c334_load_high__t79: p79 >= 1
 c335_load_high__t80: p80 >= 1
 c336_load_high__t81: p81 >= 1
 c337_load_high__t82: p82 >= 1
 c338_load_high__t83: p83 >= 1
 c339_load_high__t84: p84 >= 1
 c340_load_high__t85: p85 >= 1
 c341_load_high__t86: p86 >= 1
 c342_load_high__t87: p87 >= 1
 c343_load_high__t88: p88 >= 1
 c344_load_high__t89: p89 >= 1
 c345_load_high__t90: p90 >= 1
 c346_load_high__t91: p91 >= 1
 c347_load_high__t92: p92 >= 1
 c348_load_high__t93: p93 >= 1
 c349_load_high__t94: p94 >= 1
 c350_load_high__t95: p95 >= 1
 c351_load_high__t96: p96 >= 1
 c352_load_high__t97: p97 >= 1
 c353_load_high__t98: p98 >= 1
 c354_load_high__t99: p99 >= 1
 c355_load_high__t100: p100 >= 1
 c356_load_high__t101: p101 >= 1
 c357_load_high__t102: p102 >= 1
 c358_load_high__t103: p103 >= 1
 c359_load_high__t104: p104 >= 1
 c360_load_high__t105: p105 >= 1
 c361_load_high__t106: p106 >= 1
 c362_load_high__t107: p107 >= 1
 c363_load_high__t108: p108 >= 1
 c364_load_high__t109: p109 >= 1
 c365_load_high__t110: p110 >= 1
 c366_load_high__t111: p111 >= 1
 c367_load_high__t112: p112 >= 1
 c368_load_high__t113: p113 >= 1
 c369_load_high__t114: p114 >= 1
 c370_load_high__t115: p115 >= 1
 c371_load_high__t116: p116 >= 1
 c372_load_high__t117: p117 >= 1
 c373_load_high__t118: p118 >= 1
 c374_load_high__t119: p119 >= 1
 c375_load_high__t120: p120 >= 1
 c376_load_high__t121: p121 >= 1
 c377_load_high__t122: p122 >= 1
 c378_load_high__t123: p123 >= 1
 c379_load_high__t124: p124 >= 1
 c380_load_high__t125: p125 >= 1
 c381_load_high__t126: p126 >= 1
 c382_load_high__t127: p127 >= 1
 c383_load_high__t128: p128 >= 1
 c384_load_high__t129: p129 >= 1
 c385_load_high__t130: p130 >= 1
 c386_load_high__t131: p131 >= 1
 c387_load_high__t132: p132 >= 1
 c388_load_high__t133: p133 >= 1
 c389_load_high__t134: p134 >= 1
 c390_load_high__t135: p135 >= 1
 c391_load_high__t136: p136 >= 1
 c392_load_high__t137: p137 >= 1
 c393_load_high__t138: p138 >= 1
 c394_load_high__t139: p139 >= 1
 c395_load_high__t140: p140 >= 1
 c396_load_high__t141: p141 >= 1
 c397_load_high__t142: p142 >= 1
 c398_load_high__t143: p143 >= 1
 c399_load_high__t144: p144 >= 1
 c400_load_high__t145: p145 >= 1
 c401_load_high__t146: p146 >= 1
 c402_load_high__t147: p147 >= 1
 c403_load_high__t148: p148 >= 1
 c404_load_high__t149: p149 >= 1
 c405_load_high__t150: p150 >= 1
 c406_load_high__t151: p151 >= 1
 c407_load_high__t152: p152 >= 1
 c408_load_high__t153: p153 >= 1
 c409_load_high__t154: p154 >= 1
 c410_load_high__t155: p155 >= 1
 c411_load_high__t156: p156 >= 1
 c412_load_high__t157: p157 >= 1
 c413_load_high__t158: p158 >= 1
 c414_load_high__t159: p159 >= 1
 c415_load_high__t160: p160 >= 1
 c416_load_high__t161: p161 >= 1
 c417_load_high__t162: p162 >= 1
 c418_load_high__t163: p163 >= 1
 c419_load_high__t164: p164 >= 1
 c420_load_high__t165: p165 >= 1
 c421_load_high__t166: p166 >= 1
 c422_load_high__t167: p167 >= 1
 c423_load_high__t168: p168 >= 1
 c424_load_high__t169: p169 >= 1
 c425_load_high__t170: p170 >= 1
 c426_load_high__t171: p171 >= 1
 c427_load_high__t172: p172 >= 1
 c428_load_high__t173: p173 >= 1
 c429_load_high__t174: p174 >= 1
 c430_load_high__t175: p175 >= 1
 c431_load_high__t176: p176 >= 1
 c432_load_high__t177: p177 >= 1
 c433_load_high__t178: p178 >= 1
 c434_load_high__t179: p179 >= 1
 c435_load_high__t180: p180 >= 1
 c436_load_high__t181: p181 >= 1
 c437_load_high__t182: p182 >= 1
 c438_load_high__t183: p183 >= 1
 c439_load_high__t184: p184 >= 1
 c440_load_high__t185: p185 >= 1
 c441_load_high__t186: p186 >= 1
 c442_load_high__t187: p187 >= 1
 c443_load_high__t188: p188 >= 1
 c444_load_high__t189: p189 >= 1
 c445_load_high__t190: p190 >= 1
 c446_load_high__t191: p191 >= 1
 c447_load_high__t192: p192 >= 1
 c448_load_high__t193: p193 >= 1
 c449_load_high__t194: p194 >= 1
 c450_load_high__t195: p195 >= 1
 c451_load_high__t196: p196 >= 1
 c452_load_high__t197: p197 >= 1
 c453_load_high__t198: p198 >= 1
 c454_load_high__t199: p199 >= 1
 c455_load_high__t200: p200 >= 1
 c456_load_high__t201: p201 >= 1
 c457_load_high__t202: p202 >= 1
 c458_load_high__t203: p203 >= 1
 c459_load_high__t204: p204 >= 1
 c460_load_high__t205: p205 >= 1
 c461_load_high__t206: p206 >= 1
 c462_load_high__t207: p207 >= 1
 c463_load_high__t208: p208 >= 1
 c464_load_high__t209: p209 >= 1
 c465_load_high__t210: p210 >= 1
 c466_load_high__t211: p211 >= 1
 c467_load_high__t212: p212 >= 1
 c468_load_high__t213: p213 >= 1
 c469_load_high__t214: p214 >= 1
 c470_load_high__t215: p215 >= 1
 c471_load_high__t216: p216 >= 1
 c472_load_high__t217: p217 >= 1
 c473_load_high__t218: p218 >= 1
 c474_load_high__t219: p219 >= 1
 c475_load_high__t220: p220 >= 1
 c476_load_high__t221: p221 >= 1
 c477_load_high__t222: p222 >= 1
 c478_load_high__t223: p223 >= 1
 c479_load_high__t224: p224 >= 1
 c480_load_high__t225: p225 >= 1
 c481_load_high__t226: p226 >= 1
 c482_load_high__t227: p227 >= 1
 c483_load_high__t228: p228 >= 1
 c484_load_high__t229: p229 >= 1
 c485_load_high__t230: p230 >= 1
 c486_load_high__t231: p231 >= 1
 c487_load_high__t232: p232 >= 1
 c488_load_high__t233: p233 >= 1
 c489_load_high__t234: p234 >= 1
 c490_load_high__t235: p235 >= 1
 c491_load_high__t236: p236 >= 1
 c492_load_high__t237: p237 >= 1
 c493_load_high__t238: p238 >= 1
 c494_load_high__t239: p239 >= 1
 c495_load_high__t240: p240 >= 1
 c496_load_high__t241: p241 >= 1
 c497_load_high__t242: p242 >= 1
 c498_load_high__t243: p243 >= 1
 c499_load_high__t244: p244 >= 1
 c500_load_high__t245: p245 >= 1
 c501_load_high__t246: p246 >= 1
 c502_load_high__t247: p247 >= 1
 c503_load_high__t248: p248 >= 1
 c504_load_high__t249: p249 >= 1
 c505_load_high__t250: p250 >= 1
 c506_load_high__t251: p251 >= 1
 c507_load_high__t252: p252 >= 1
 c508_load_high__t253: p253 >= 1
 c509_load_high__t254: p254 >= 1
 c510_load_high__t255: p255 >= 1
 c511_load_high__t256: p256 >= 1
Binary
 p1
 p2
 p3
 p4
 p5
 p6
 p7
 p8
 p9
 p10
 p11
 p12
 p13
 p14
 p15
 p16
 p17
 p18
 p19
 p20
 p21
 p22
 p23
 p24
 p25
 p26
 p27
 p28
 p29
 p30
 p31
 p32
 p33
 p34
 p35
 p36
 p37
 p38
 p39
 p40
 p41
 p42
 p43
 p44
 p45
 p46
 p47
 p48
 p49
 p50
 p51
 p52
 p53
 p54
 p55
 p56
 p57
 p58
 p59
 p60
 p61
 p62
 p63
 p64
 p65
 p66
 p67
 p68
 p69
 p70
 p71
 p72
 p73
 p74
 p75
 p76
 p77
 p78
 p79
 p80
 p81
 p82
 p83
 p84
 p85
 p86
 p87
 p88
 p89
 p90
 p91
 p92
 p93
 p94
 p95
 p96
 p97
 p98
 p99
 p100
 p101
 p102
 p103
 p104
 p105
 p106
 p107
 p108
 p109
 p110
 p111
 p112
 p113
 p114
 p115
 p116
 p117
 p118
 p119
 p120
 p121
 p122
 p123
 p124
 p125
 p126
 p127
 p128
 p129
 p130
 p131
 p132
 p133
 p134
 p135
 p136
 p137
 p138
 p139
 p140
 p141
 p142
 p143
 p144
 p145
 p146
 p147
 p148
 p149
 p150
 p151
 p152
 p153
 p154
 p155
 p156
 p157
 p158
 p159
 p160
 p161
 p162
 p163
 p164
 p165
 p166
 p167
 p168
 p169
 p170
 p171
 p172
 p173
 p174
 p175
 p176
 p177
 p178
 p179
 p180
 p181
 p182
 p183
 p184
 p185
 p186
 p187
 p188
 p189
 p190
 p191
 p192
 p193
 p194
 p195
 p196
 p197
 p198
 p199
 p200
 p201
 p202
 p203
 p204
 p205
 p206
 p207
 p208
 p209
 p210
 p211
 p212
 p213
 p214
 p215
 p216
 p217
 p218
 p219
 p220
 p221
 p222
 p223
 p224
 p225
 p226
 p227
 p228
 p229
 p230
 p231
 p232
 p233
 p234
 p235
 p236
 p237
 p238
 p239
 p240
 p241
 p242
 p243
 p244
 p245
 p246
 p247
 p248
 p249
 p250
 p251
 p252
 p253
 p254
 p255
 p256
End
