\ Boolean forbidden-tuple encoding
Minimize
 obj: 0
Subject To
 c0_load_low__t1: p1 >= 1
 c1_load_low__t2: - p2 >= 0
 c2_load_low__t3: - p3 >= 0
 c3_load_low__t4: - p4 >= 0
 c4_load_low__t5: - p5 >= 0
 c5_load_low__t6: - p6 >= 0
 c6_load_low__t7: - p7 >= 0
 c7_load_low__t8: - p8 >= 0
 c8_load_low__t9: - p9 >= 0
 c9_load_low__t10: - p10 >= 0
 c10_load_low__t11: - p11 >= 0
 c11_load_low__t12: - p12 >= 0
 c12_load_low__t13: - p13 >= 0
 c13_load_low__t14: - p14 >= 0
 c14_load_low__t15: - p15 >= 0
 c15_load_low__t16: - p16 >= 0
 c16_load_low__t17: - p17 >= 0
 c17_load_low__t18: - p18 >= 0
 c18_load_low__t19: - p19 >= 0
 c19_load_low__t20: - p20 >= 0
 c20_load_low__t21: - p21 >= 0
 c21_load_low__t22: - p22 >= 0
 c22_load_low__t23: - p23 >= 0
 c23_load_low__t24: - p24 >= 0
 c24_load_low__t25: - p25 >= 0
 c25_load_low__t26: - p26 >= 0
 c26_load_low__t27: - p27 >= 0
 c27_load_low__t28: - p28 >= 0
 c28_load_low__t29: - p29 >= 0
 c29_load_low__t30: - p30 >= 0
 c30_load_low__t31: - p31 >= 0
 c31_load_low__t32: - p32 >= 0
 c32_load_low__t33: - p33 >= 0
 c33_load_low__t34: - p34 >= 0
 c34_load_low__t35: - p35 >= 0
 c35_load_low__t36: - p36 >= 0
 c36_load_low__t37: - p37 >= 0
 c37_load_low__t38: - p38 >= 0
 c38_load_low__t39: - p39 >= 0
 c39_load_low__t40: - p40 >= 0
 c40_load_low__t41: - p41 >= 0
 c41_load_low__t42: - p42 >= 0
 c42_load_low__t43: - p43 >= 0
 c43_load_low__t44: - p44 >= 0
 c44_load_low__t45: - p45 >= 0
 c45_load_low__t46: - p46 >= 0
 c46_load_low__t47: - p47 >= 0
 c47_load_low__t48: - p48 >= 0
 c48_load_low__t49: - p49 >= 0
 c49_load_low__t50: - p50 >= 0
 c50_load_low__t51: - p51 >= 0
 c51_load_low__t52: - p52 >= 0
 c52_load_low__t53: - p53 >= 0
 c53_load_low__t54: - p54 >= 0
 c54_load_low__t55: - p55 >= 0
 c55_load_low__t56: - p56 >= 0
 c56_load_low__t57: - p57 >= 0
 c57_load_low__t58: - p58 >= 0
 c58_load_low__t59: - p59 >= 0
 c59_load_low__t60: - p60 >= 0
 c60_load_low__t61: - p61 >= 0
 c61_load_low__t62: - p62 >= 0
 c62_load_low__t63: - p63 >= 0
 c63_load_low__t64: - p64 >= 0
 c64_load_low__t65: - p65 >= 0
 c65_load_low__t66: - p66 >= 0
 c66_load_low__t67: - p67 >= 0
 c67_load_low__t68: - p68 >= 0
 c68_load_low__t69: - p69 >= 0
 c69_load_low__t70: - p70 >= 0
 c70_load_low__t71: - p71 >= 0
 c71_load_low__t72: - p72 >= 0
 c72_load_low__t73: - p73 >= 0
 c73_load_low__t74: - p74 >= 0
 c74_load_low__t75: - p75 >= 0
 c75_load_low__t76: - p76 >= 0
 c76_load_low__t77: - p77 >= 0
 c77_load_low__t78: - p78 >= 0
 c78_load_low__t79: - p79 >= 0
 c79_load_low__t80: - p80 >= 0
 c80_load_low__t81: - p81 >= 0
 c81_load_low__t82: - p82 >= 0
 c82_load_low__t83: - p83 >= 0
 c83_load_low__t84: - p84 >= 0
 c84_load_low__t85: - p85 >= 0
 c85_load_low__t86: - p86 >= 0
 c86_load_low__t87: - p87 >= 0
 c87_load_low__t88: - p88 >= 0
 c88_load_low__t89: - p89 >= 0
 c89_load_low__t90: - p90 >= 0
 c90_load_low__t91: - p91 >= 0
 c91_load_low__t92: - p92 >= 0
 c92_load_low__t93: - p93 >= 0
 c93_load_low__t94: - p94 >= 0
 c94_load_low__t95: - p95 >= 0
 c95_load_low__t96: - p96 >= 0
 c96_load_low__t97: - p97 >= 0
 c97_load_low__t98: - p98 >= 0
 c98_load_low__t99: - p99 >= 0
 c99_load_low__t100: - p100 >= 0
 c100_load_low__t101: - p101 >= 0
 c101_load_low__t102: - p102 >= 0
 c102_load_low__t103: - p103 >= 0
 c103_load_low__t104: - p104 >= 0
 c104_load_low__t105: - p105 >= 0
 c105_load_low__t106: - p106 >= 0
 c106_load_low__t107: - p107 >= 0
 c107_load_low__t108: - p108 >= 0
 c108_load_low__t109: - p109 >= 0
 c109_load_low__t110: - p110 >= 0
 c110_load_low__t111: - p111 >= 0
 c111_load_low__t112: - p112 >= 0
 c112_load_low__t113: - p113 >= 0
 c113_load_low__t114: - p114 >= 0
 c114_load_low__t115: - p115 >= 0
 c115_load_low__t116: - p116 >= 0
 c116_load_low__t117: - p117 >= 0
 c117_load_low__t118: - p118 >= 0
 c118_load_low__t119: - p119 >= 0
 c119_load_low__t120: - p120 >= 0
 c120_load_low__t121: - p121 >= 0
 c121_load_low__t122: - p122 >= 0
 c122_load_low__t123: - p123 >= 0
 c123_load_low__t124: - p124 >= 0
 c124_load_low__t125: - p125 >= 0
 c125_load_low__t126: - p126 >= 0
 c126_load_low__t127: - p127 >= 0
 c127_load_low__t128: - p128 >= 0
 c128_load_low__t129: - p129 >= 0
 c129_load_low__t130: - p130 >= 0
 c130_load_low__t131: - p131 >= 0
 c131_load_low__t132: - p132 >= 0
 c132_load_low__t133: - p133 >= 0
 c133_load_low__t134: - p134 >= 0
 c134_load_low__t135: - p135 >= 0
 c135_load_low__t136: - p136 >= 0
 c136_load_low__t137: - p137 >= 0
 c137_load_low__t138: - p138 >= 0
 c138_load_low__t139: - p139 >= 0
 c139_load_low__t140: - p140 >= 0
 c140_load_low__t141: - p141 >= 0
 c141_load_low__t142: - p142 >= 0
 c142_load_low__t143: - p143 >= 0
 c143_load_low__t144: - p144 >= 0
 c144_load_low__t145: - p145 >= 0
 c145_load_low__t146: - p146 >= 0
 c146_load_low__t147: - p147 >= 0
 c147_load_low__t148: - p148 >= 0
 c148_load_low__t149: - p149 >= 0
 c149_load_low__t150: - p150 >= 0
 c150_load_low__t151: - p151 >= 0
 c151_load_low__t152: - p152 >= 0
 c152_load_low__t153: - p153 >= 0
 c153_load_low__t154: - p154 >= 0
 c154_load_low__t155: - p155 >= 0
 c155_load_low__t156: - p156 >= 0
 c156_load_low__t157: - p157 >= 0
 c157_load_low__t158: - p158 >= 0
 c158_load_low__t159: - p159 >= 0
 c159_load_low__t160: - p160 >= 0
 c160_load_low__t161: - p161 >= 0
 c161_load_low__t162: - p162 >= 0
 c162_load_low__t163: - p163 >= 0
 c163_load_low__t164: - p164 >= 0
 c164_load_low__t165: - p165 >= 0
 c165_load_low__t166: - p166 >= 0
 c166_load_low__t167: - p167 >= 0
 c167_load_low__t168: - p168 >= 0
 c168_load_low__t169: - p169 >= 0
 c169_load_low__t170: - p170 >= 0
 c170_load_low__t171: - p171 >= 0
 c171_load_low__t172: - p172 >= 0
 c172_load_low__t173: - p173 >= 0
 c173_load_low__t174: - p174 >= 0
 c174_load_low__t175: - p175 >= 0
 c175_load_low__t176: - p176 >= 0
 c176_load_low__t177: - p177 >= 0
 c177_load_low__t178: - p178 >= 0
 c178_load_low__t179: - p179 >= 0
 c179_load_low__t180: - p180 >= 0
 c180_load_low__t181: - p181 >= 0
 c181_load_low__t182: - p182 >= 0
 c182_load_low__t183: - p183 >= 0
 c183_load_low__t184: - p184 >= 0
 c184_load_low__t185: - p185 >= 0
 c185_load_low__t186: - p186 >= 0
 c186_load_low__t187: - p187 >= 0
 c187_load_low__t188: - p188 >= 0
 c188_load_low__t189: - p189 >= 0
 c189_load_low__t190: - p190 >= 0
 c190_load_low__t191: - p191 >= 0
 c191_load_low__t192: - p192 >= 0
 c192_load_low__t193: - p193 >= 0
 c193_load_low__t194: - p194 >= 0
 c194_load_low__t195: - p195 >= 0
 c195_load_low__t196: - p196 >= 0
 c196_load_low__t197: - p197 >= 0
 c197_load_low__t198: - p198 >= 0
 c198_load_low__t199: - p199 >= 0
 c199_load_low__t200: - p200 >= 0
 c200_load_low__t201: - p201 >= 0
 c201_load_low__t202: - p202 >= 0
 c202_load_low__t203: - p203 >= 0
 c203_load_low__t204: - p204 >= 0
 c204_load_low__t205: - p205 >= 0
 c205_load_low__t206: - p206 >= 0
 c206_load_low__t207: - p207 >= 0
 c207_load_low__t208: - p208 >= 0
 c208_load_low__t209: - p209 >= 0
 c209_load_low__t210: - p210 >= 0
 c210_load_low__t211: - p211 >= 0
 c211_load_low__t212: - p212 >= 0
 c212_load_low__t213: - p213 >= 0
 c213_load_low__t214: - p214 >= 0
 c214_load_low__t215: - p215 >= 0
 c215_load_low__t216: - p216 >= 0
 c216_load_low__t217: - p217 >= 0
 c217_load_low__t218: - p218 >= 0
 c218_load_low__t219: - p219 >= 0
 c219_load_low__t220: - p220 >= 0
 c220_load_low__t221: - p221 >= 0
 c221_load_low__t222: - p222 >= 0
 c222_load_low__t223: - p223 >= 0
 c223_load_low__t224: - p224 >= 0
 c224_load_low__t225: - p225 >= 0
 c225_load_low__t226: - p226 >= 0
 c226_load_low__t227: - p227 >= 0
 c227_load_low__t228: - p228 >= 0
 c228_load_low__t229: - p229 >= 0
 c229_load_low__t230: - p230 >= 0
 c230_load_low__t231: - p231 >= 0
 c231_load_low__t232: - p232 >= 0
 c232_load_low__t233: - p233 >= 0
 c233_load_low__t234: - p234 >= 0
 c234_load_low__t235: - p235 >= 0
 c235_load_low__t236: - p236 >= 0
 c236_load_low__t237: - p237 >= 0
 c237_load_low__t238: - p238 >= 0
 c238_load_low__t239: - p239 >= 0
 c239_load_low__t240: - p240 >= 0
 c240_load_low__t241: - p241 >= 0
 c241_load_low__t242: - p242 >= 0
 c242_load_low__t243: - p243 >= 0
 c243_load_low__t244: - p244 >= 0
 c244_load_low__t245: - p245 >= 0
 c245_load_low__t246: - p246 >= 0
 c246_load_low__t247: - p247 >= 0
 c247_load_low__t248: - p248 >= 0
 c248_load_low__t249: - p249 >= 0
 c249_load_low__t250: - p250 >= 0
 c250_load_low__t251: - p251 >= 0
 c251_load_low__t252: - p252 >= 0
 c252_load_low__t253: - p253 >= 0
 c253_load_low__t254: - p254 >= 0
 c254_load_low__t255: - p255 >= 0
 c255_load_low__t256: - p256 >= 0
 c256_load_low__t257: - p257 >= 0
 c257_load_low__t258: - p258 >= 0
 c258_load_low__t259: - p259 >= 0
 c259_load_low__t260: - p260 >= 0
 c260_load_low__t261: - p261 >= 0
 c261_load_low__t262: - p262 >= 0
 c262_load_low__t263: - p263 >= 0
 c263_load_low__t264: - p264 >= 0
 c264_load_low__t265: - p265 >= 0
 c265_load_low__t266: - p266 >= 0
 c266_load_low__t267: - p267 >= 0
 c267_load_low__t268: - p268 >= 0
 c268_load_low__t269: - p269 >= 0
 c269_load_low__t270: - p270 >= 0
 c270_load_low__t271: - p271 >= 0
 c271_load_low__t272: - p272 >= 0
 c272_load_low__t273: - p273 >= 0
 c273_load_low__t274: - p274 >= 0
 c274_load_low__t275: - p275 >= 0
 c275_load_low__t276: - p276 >= 0
 c276_load_low__t277: - p277 >= 0
 c277_load_low__t278: - p278 >= 0
 c278_load_low__t279: - p279 >= 0
 c279_load_low__t280: - p280 >= 0
 c280_load_low__t281: - p281 >= 0
 c281_load_low__t282: - p282 >= 0
 c282_load_low__t283: - p283 >= 0
 c283_load_low__t284: - p284 >= 0
 c284_load_low__t285: - p285 >= 0
 c285_load_low__t286: - p286 >= 0
 c286_load_low__t287: - p287 >= 0
 c287_load_low__t288: - p288 >= 0
 c288_load_low__t289: - p289 >= 0
 c289_load_low__t290: - p290 >= 0
 c290_load_low__t291: - p291 >= 0
 c291_load_low__t292: - p292 >= 0
 c292_load_low__t293: - p293 >= 0
 c293_load_low__t294: - p294 >= 0
 c294_load_low__t295: - p295 >= 0
 c295_load_low__t296: - p296 >= 0
 c296_load_low__t297: - p297 >= 0
 c297_load_low__t298: - p298 >= 0
 c298_load_low__t299: - p299 >= 0
 c299_load_low__t300: - p300 >= 0
 c300_load_low__t301: - p301 >= 0
 c301_load_low__t302: - p302 >= 0
 c302_load_low__t303: - p303 >= 0
 c303_load_low__t304: - p304 >= 0
 c304_load_low__t305: - p305 >= 0
 c305_load_low__t306: - p306 >= 0
 c306_load_low__t307: - p307 >= 0
 c307_load_low__t308: - p308 >= 0
 c308_load_low__t309: - p309 >= 0
 c309_load_low__t310: - p310 >= 0
 c310_load_low__t311: - p311 >= 0
 c311_load_low__t312: - p312 >= 0
 c312_load_low__t313: - p313 >= 0
 c313_load_low__t314: - p314 >= 0
 c314_load_low__t315: - p315 >= 0
 c315_load_low__t316: - p316 >= 0
 c316_load_low__t317: - p317 >= 0
 c317_load_low__t318: - p318 >= 0
 c318_load_low__t319: - p319 >= 0
 c319_load_low__t320: - p320 >= 0
 c320_load_low__t321: - p321 >= 0
 c321_load_low__t322: - p322 >= 0
 c322_load_low__t323: - p323 >= 0
 c323_load_low__t324: - p324 >= 0
 c324_load_low__t325: - p325 >= 0
 c325_load_low__t326: - p326 >= 0
 c326_load_low__t327: - p327 >= 0
 c327_load_low__t328: - p328 >= 0
 c328_load_low__t329: - p329 >= 0
 c329_load_low__t330: - p330 >= 0
 c330_load_low__t331: - p331 >= 0
 c331_load_low__t332: - p332 >= 0
 c332_load_low__t333: - p333 >= 0
 c333_load_low__t334: - p334 >= 0
 c334_load_low__t335: - p335 >= 0
 c335_load_low__t336: - p336 >= 0
 c336_load_low__t337: - p337 >= 0
 c337_load_low__t338: - p338 >= 0
 c338_load_low__t339: - p339 >= 0
 c339_load_low__t340: - p340 >= 0
 c340_load_low__t341: - p341 >= 0
 c341_load_low__t342: - p342 >= 0
 c342_load_low__t343: - p343 >= 0
 c343_load_low__t344: - p344 >= 0
 c344_load_low__t345: - p345 >= 0
 c345_load_low__t346: - p346 >= 0
 c346_load_low__t347: - p347 >= 0
 c347_load_low__t348: - p348 >= 0
 c348_load_low__t349: - p349 >= 0
 c349_load_low__t350: - p350 >= 0
 c350_load_low__t351: - p351 >= 0
 c351_load_low__t352: - p352 >= 0
 c352_load_low__t353: - p353 >= 0
 c353_load_low__t354: - p354 >= 0
 c354_load_low__t355: - p355 >= 0
 c355_load_low__t356: - p356 >= 0
 c356_load_low__t357: - p357 >= 0
 c357_load_low__t358: - p358 >= 0
 c358_load_low__t359: - p359 >= 0
 c359_load_low__t360: - p360 >= 0
 c360_load_low__t361: - p361 >= 0
 c361_load_low__t362: - p362 >= 0
 c362_load_low__t363: - p363 >= 0
 c363_load_low__t364: - p364 >= 0
 c364_load_low__t365: - p365 >= 0
 c365_load_low__t366: - p366 >= 0
 c366_load_low__t367: - p367 >= 0
 c367_load_low__t368: - p368 >= 0
 c368_load_low__t369: - p369 >= 0
 c369_load_low__t370: - p370 >= 0
 c370_load_low__t371: - p371 >= 0
 c371_load_low__t372: - p372 >= 0
 c372_load_low__t373: - p373 >= 0
 c373_load_low__t374: - p374 >= 0
 c374_load_low__t375: - p375 >= 0
 c375_load_low__t376: - p376 >= 0
 c376_load_low__t377: - p377 >= 0
 c377_load_low__t378: - p378 >= 0
 c378_load_low__t379: - p379 >= 0
 c379_load_low__t380: - p380 >= 0
 c380_load_low__t381: - p381 >= 0
 c381_load_low__t382: - p382 >= 0
 c382_load_low__t383: - p383 >= 0
 c383_load_low__t384: - p384 >= 0
 c384_load_low__t385: - p385 >= 0
 c385_load_low__t386: - p386 >= 0
 c386_load_low__t387: - p387 >= 0
 c387_load_low__t388: - p388 >= 0
 c388_load_low__t389: - p389 >= 0
 c389_load_low__t390: - p390 >= 0
 c390_load_low__t391: - p391 >= 0
 c391_load_low__t392: - p392 >= 0
 c392_load_low__t393: - p393 >= 0
 c393_load_low__t394: - p394 >= 0
 c394_load_low__t395: - p395 >= 0
 c395_load_low__t396: - p396 >= 0
 c396_load_low__t397: - p397 >= 0
 c397_load_low__t398: - p398 >= 0
 c398_load_low__t399: - p399 >= 0
 c399_load_low__t400: - p400 >= 0
 c400_load_low__t401: - p401 >= 0
 c401_load_low__t402: - p402 >= 0
 c402_load_low__t403: - p403 >= 0
 c403_load_low__t404: - p404 >= 0
 c404_load_low__t405: - p405 >= 0
 c405_load_low__t406: - p406 >= 0
 c406_load_low__t407: - p407 >= 0
 c407_load_low__t408: - p408 >= 0
 c408_load_low__t409: - p409 >= 0
 c409_load_low__t410: - p410 >= 0
 c410_load_low__t411: - p411 >= 0
 c411_load_low__t412: - p412 >= 0
 c412_load_low__t413: - p413 >= 0
 c413_load_low__t414: - p414 >= 0
 c414_load_low__t415: - p415 >= 0
 c415_load_low__t416: - p416 >= 0
 c416_load_low__t417: - p417 >= 0
 c417_load_low__t418: - p418 >= 0
 c418_load_low__t419: - p419 >= 0
 c419_load_low__t420: - p420 >= 0
 c420_load_low__t421: - p421 >= 0
 c421_load_low__t422: - p422 >= 0
 c422_load_low__t423: - p423 >= 0
 c423_load_low__t424: - p424 >= 0
 c424_load_low__t425: - p425 >= 0
 c425_load_low__t426: - p426 >= 0
 c426_load_low__t427: - p427 >= 0
 c427_load_low__t428: - p428 >= 0
 c428_load_low__t429: - p429 >= 0
 c429_load_low__t430: - p430 >= 0
 c430_load_low__t431: - p431 >= 0
 c431_load_low__t432: - p432 >= 0
 c432_load_low__t433: - p433 >= 0
 c433_load_low__t434: - p434 >= 0
 c434_load_low__t435: - p435 >= 0
 c435_load_low__t436: - p436 >= 0
 c436_load_low__t437: - p437 >= 0
 c437_load_low__t438: - p438 >= 0
 c438_load_low__t439: - p439 >= 0
 c439_load_low__t440: - p440 >= 0
 c440_load_low__t441: - p441 >= 0
 c441_load_low__t442: - p442 >= 0
 c442_load_low__t443: - p443 >= 0
 c443_load_low__t444: - p444 >= 0
 c444_load_low__t445: - p445 >= 0
 c445_load_low__t446: - p446 >= 0
 c446_load_low__t447: - p447 >= 0
 c447_load_low__t448: - p448 >= 0
 c448_load_low__t449: - p449 >= 0
 c449_load_low__t450: - p450 >= 0
 c450_load_low__t451: - p451 >= 0
 c451_load_low__t452: - p452 >= 0
 c452_load_low__t453: - p453 >= 0
 c453_load_low__t454: - p454 >= 0
 c454_load_low__t455: - p455 >= 0
 c455_load_low__t456: - p456 >= 0
 c456_load_low__t457: - p457 >= 0
 c457_load_low__t458: - p458 >= 0
 c458_load_low__t459: - p459 >= 0
 c459_load_low__t460: - p460 >= 0
 c460_load_low__t461: - p461 >= 0
 c461_load_low__t462: - p462 >= 0
 c462_load_low__t463: - p463 >= 0
 c463_load_low__t464: - p464 >= 0
 c464_load_low__t465: - p465 >= 0
 c465_load_low__t466: - p466 >= 0
 c466_load_low__t467: - p467 >= 0
 c467_load_low__t468: - p468 >= 0
 c468_load_low__t469: - p469 >= 0
 c469_load_low__t470: - p470 >= 0
 c470_load_low__t471: - p471 >= 0
 c471_load_low__t472: - p472 >= 0
 c472_load_low__t473: - p473 >= 0
 c473_load_low__t474: - p474 >= 0
 c474_load_low__t475: - p475 >= 0
 c475_load_low__t476: - p476 >= 0
 c476_load_low__t477: - p477 >= 0
 c477_load_low__t478: - p478 >= 0
 c478_load_low__t479: - p479 >= 0
 c479_load_low__t480: - p480 >= 0
 c480_load_low__t481: - p481 >= 0
 c481_load_low__t482: - p482 >= 0
 c482_load_low__t483: - p483 >= 0
 c483_load_low__t484: - p484 >= 0
 c484_load_low__t485: - p485 >= 0
 c485_load_low__t486: - p486 >= 0
 c486_load_low__t487: - p487 >= 0
 c487_load_low__t488: - p488 >= 0
 c488_load_low__t489: - p489 >= 0
 c489_load_low__t490: - p490 >= 0
 c490_load_low__t491: - p491 >= 0
 c491_load_low__t492: - p492 >= 0
 c492_load_low__t493: - p493 >= 0
 c493_load_low__t494: - p494 >= 0
 c494_load_low__t495: - p495 >= 0
 c495_load_low__t496: - p496 >= 0
 c496_load_low__t497: - p497 >= 0
 c497_load_low__t498: - p498 >= 0
 c498_load_low__t499: - p499 >= 0
 c499_load_low__t500: - p500 >= 0
 c500_load_low__t501: - p501 >= 0
 c501_load_low__t502: - p502 >= 0
 c502_load_low__t503: - p503 >= 0
 c503_load_low__t504: - p504 >= 0
 c504_load_low__t505: - p505 >= 0
 c505_load_low__t506: - p506 >= 0
 c506_load_low__t507: - p507 >= 0
 c507_load_low__t508: - p508 >= 0
 c508_load_low__t509: - p509 >= 0
 c509_load_low__t510: - p510 >= 0
 c510_load_low__t511: - p511 >= 0
 c511_load_low__t512: - p512 >= 0
 c512_load_low__t513: - p513 >= 0
 c513_load_low__t514: - p514 >= 0
 c514_load_low__t515: - p515 >= 0
 c515_load_low__t516: - p516 >= 0
 c516_load_low__t517: - p517 >= 0
 c517_load_low__t518: - p518 >= 0
 c518_load_low__t519: - p519 >= 0
 c519_load_low__t520: - p520 >= 0
 c520_load_low__t521: - p521 >= 0
 c521_load_low__t522: - p522 >= 0
 c522_load_low__t523: - p523 >= 0
 c523_load_low__t524: - p524 >= 0
 c524_load_low__t525: - p525 >= 0
 c525_load_low__t526: - p526 >= 0
 c526_load_low__t527: - p527 >= 0
 c527_load_low__t528: - p528 >= 0
 c528_load_low__t529: - p529 >= 0
 c529_load_low__t530: - p530 >= 0
 c530_load_low__t531: - p531 >= 0
 c531_load_low__t532: - p532 >= 0
 c532_load_low__t533: - p533 >= 0
 c533_load_low__t534: - p534 >= 0
 c534_load_low__t535: - p535 >= 0
 c535_load_low__t536: - p536 >= 0
 c536_load_low__t537: - p537 >= 0
 c537_load_low__t538: - p538 >= 0
 c538_load_low__t539: - p539 >= 0
 c539_load_low__t540: - p540 >= 0
 c540_load_low__t541: - p541 >= 0
 c541_load_low__t542: - p542 >= 0
 c542_load_low__t543: - p543 >= 0
 c543_load_low__t544: - p544 >= 0
 c544_load_low__t545: - p545 >= 0
 c545_load_low__t546: - p546 >= 0
 c546_load_low__t547: - p547 >= 0
 c547_load_low__t548: - p548 >= 0
 c548_load_low__t549: - p549 >= 0
 c549_load_low__t550: - p550 >= 0
 c550_load_low__t551: - p551 >= 0
 c551_load_low__t552: - p552 >= 0
 c552_load_low__t553: - p553 >= 0
 c553_load_low__t554: - p554 >= 0
 c554_load_low__t555: - p555 >= 0
 c555_load_low__t556: - p556 >= 0
 c556_load_low__t557: - p557 >= 0
 c557_load_low__t558: - p558 >= 0
 c558_load_low__t559: - p559 >= 0
 c559_load_low__t560: - p560 >= 0
 c560_load_low__t561: - p561 >= 0
 c561_load_low__t562: - p562 >= 0
 c562_load_low__t563: - p563 >= 0
 c563_load_low__t564: - p564 >= 0
 c564_load_low__t565: - p565 >= 0
 c565_load_low__t566: - p566 >= 0
 c566_load_low__t567: - p567 >= 0
 c567_load_low__t568: - p568 >= 0
 c568_load_low__t569: - p569 >= 0
 c569_load_low__t570: - p570 >= 0
 c570_load_low__t571: - p571 >= 0
 c571_load_low__t572: - p572 >= 0
 c572_load_low__t573: - p573 >= 0
 c573_load_low__t574: - p574 >= 0
 c574_load_low__t575: - p575 >= 0
 c575_load_low__t576: - p576 >= 0
 c576_load_low__t577: - p577 >= 0
 c577_load_low__t578: - p578 >= 0
 c578_load_low__t579: - p579 >= 0
 c579_load_low__t580: - p580 >= 0
 c580_load_low__t581: - p581 >= 0
 c581_load_low__t582: - p582 >= 0
 c582_load_low__t583: - p583 >= 0
 c583_load_low__t584: - p584 >= 0
 c584_load_low__t585: - p585 >= 0
 c585_load_low__t586: - p586 >= 0
 c586_load_low__t587: - p587 >= 0
 c587_load_low__t588: - p588 >= 0
 c588_load_low__t589: - p589 >= 0
 c589_load_low__t590: - p590 >= 0
 c590_load_low__t591: - p591 >= 0
 c591_load_low__t592: - p592 >= 0
 c592_load_low__t593: - p593 >= 0
 c593_load_low__t594: - p594 >= 0
 c594_load_low__t595: - p595 >= 0
 c595_load_low__t596: - p596 >= 0
 c596_load_low__t597: - p597 >= 0
 c597_load_low__t598: - p598 >= 0
 c598_load_low__t599: - p599 >= 0
 c599_load_low__t600: - p600 >= 0
 c600_load_low__t601: - p601 >= 0
 c601_load_low__t602: - p602 >= 0
 c602_load_low__t603: - p603 >= 0
 c603_load_low__t604: - p604 >= 0
 c604_load_low__t605: - p605 >= 0
 c605_load_low__t606: - p606 >= 0
 c606_load_low__t607: - p607 >= 0
 c607_load_low__t608: - p608 >= 0
 c608_load_low__t609: - p609 >= 0
 c609_load_low__t610: - p610 >= 0
 c610_load_low__t611: - p611 >= 0
 c611_load_low__t612: - p612 >= 0
 c612_load_low__t613: - p613 >= 0
 c613_load_low__t614: - p614 >= 0
 c614_load_low__t615: - p615 >= 0
 c615_load_low__t616: - p616 >= 0
 c616_load_low__t617: - p617 >= 0
 c617_load_low__t618: - p618 >= 0
 c618_load_low__t619: - p619 >= 0
 c619_load_low__t620: - p620 >= 0
 c620_load_low__t621: - p621 >= 0
 c621_load_low__t622: - p622 >= 0
 c622_load_low__t623: - p623 >= 0
 c623_load_low__t624: - p624 >= 0
 c624_load_low__t625: - p625 >= 0
 c625_load_low__t626: - p626 >= 0
 c626_load_low__t627: - p627 >= 0
 c627_load_low__t628: - p628 >= 0
 c628_load_low__t629: - p629 >= 0
 c629_load_low__t630: - p630 >= 0
 c630_load_low__t631: - p631 >= 0
 c631_load_low__t632: - p632 >= 0
 c632_load_low__t633: - p633 >= 0
 c633_load_low__t634: - p634 >= 0
 c634_load_low__t635: - p635 >= 0
 c635_load_low__t636: - p636 >= 0
 c636_load_low__t637: - p637 >= 0
 c637_load_low__t638: - p638 >= 0
 c638_load_low__t639: - p639 >= 0
 c639_load_low__t640: - p640 >= 0
 c640_load_low__t641: - p641 >= 0
 c641_load_low__t642: - p642 >= 0
 c642_load_low__t643: - p643 >= 0
 c643_load_low__t644: - p644 >= 0
 c644_load_low__t645: - p645 >= 0
 c645_load_low__t646: - p646 >= 0
 c646_load_low__t647: - p647 >= 0
 c647_load_low__t648: - p648 >= 0
 c648_load_low__t649: - p649 >= 0
 c649_load_low__t650: - p650 >= 0
 c650_load_low__t651: - p651 >= 0
 c651_load_low__t652: - p652 >= 0
 c652_load_low__t653: - p653 >= 0
 c653_load_low__t654: - p654 >= 0
 c654_load_low__t655: - p655 >= 0
 c655_load_low__t656: - p656 >= 0
 c656_load_low__t657: - p657 >= 0
 c657_load_low__t658: - p658 >= 0
 c658_load_low__t659: - p659 >= 0
 c659_load_low__t660: - p660 >= 0
 c660_load_low__t661: - p661 >= 0
 c661_load_low__t662: - p662 >= 0
 c662_load_low__t663: - p663 >= 0
 c663_load_low__t664: - p664 >= 0
 c664_load_low__t665: - p665 >= 0
 c665_load_low__t666: - p666 >= 0
 c666_load_low__t667: - p667 >= 0
 c667_load_low__t668: - p668 >= 0
 c668_load_low__t669: - p669 >= 0
 c669_load_low__t670: - p670 >= 0
 c670_load_low__t671: - p671 >= 0
 c671_load_low__t672: - p672 >= 0
 c672_load_low__t673: - p673 >= 0
 c673_load_low__t674: - p674 >= 0
 c674_load_low__t675: - p675 >= 0
 c675_load_low__t676: - p676 >= 0
 c676_load_low__t677: - p677 >= 0
 c677_load_low__t678: - p678 >= 0
 c678_load_low__t679: - p679 >= 0
 c679_load_low__t680: - p680 >= 0
 c680_load_low__t681: - p681 >= 0
 c681_load_low__t682: - p682 >= 0
 c682_load_low__t683: - p683 >= 0
 c683_load_low__t684: - p684 >= 0
 c684_load_low__t685: - p685 >= 0
 c685_load_low__t686: - p686 >= 0
 c686_load_low__t687: - p687 >= 0
 c687_load_low__t688: - p688 >= 0
 c688_load_low__t689: - p689 >= 0
 c689_load_low__t690: - p690 >= 0
 c690_load_low__t691: - p691 >= 0
 c691_load_low__t692: - p692 >= 0
 c692_load_low__t693: - p693 >= 0
 c693_load_low__t694: - p694 >= 0
 c694_load_low__t695: - p695 >= 0
 c695_load_low__t696: - p696 >= 0
 c696_load_low__t697: - p697 >= 0
 c697_load_low__t698: - p698 >= 0
 c698_load_low__t699: - p699 >= 0
 c699_load_low__t700: - p700 >= 0
 c700_load_low__t701: - p701 >= 0
 c701_load_low__t702: - p702 >= 0
 c702_load_low__t703: - p703 >= 0
 c703_load_low__t704: - p704 >= 0
 c704_load_low__t705: - p705 >= 0
 c705_load_low__t706: - p706 >= 0
 c706_load_low__t707: - p707 >= 0
 c707_load_low__t708: - p708 >= 0
 c708_load_low__t709: - p709 >= 0
 c709_load_low__t710: - p710 >= 0
 c710_load_low__t711: - p711 >= 0
 c711_load_low__t712: - p712 >= 0
 c712_load_low__t713: - p713 >= 0
 c713_load_low__t714: - p714 >= 0
 c714_load_low__t715: - p715 >= 0
 c715_load_low__t716: - p716 >= 0
 c716_load_low__t717: - p717 >= 0
 c717_load_low__t718: - p718 >= 0
 c718_load_low__t719: - p719 >= 0
 c719_load_low__t720: - p720 >= 0
 c720_load_low__t721: - p721 >= 0
 c721_load_low__t722: - p722 >= 0
 c722_load_low__t723: - p723 >= 0
 c723_load_low__t724: - p724 >= 0
 c724_load_low__t725: - p725 >= 0
 c725_load_low__t726: - p726 >= 0
 c726_load_low__t727: - p727 >= 0
 c727_load_low__t728: - p728 >= 0
 c728_load_low__t729: - p729 >= 0
 c729_load_low__t730: - p730 >= 0
 c730_load_low__t731: - p731 >= 0
 c731_load_low__t732: - p732 >= 0
 c732_load_low__t733: - p733 >= 0
 c733_load_low__t734: - p734 >= 0
 c734_load_low__t735: - p735 >= 0
 c735_load_low__t736: - p736 >= 0
 c736_load_low__t737: - p737 >= 0
 c737_load_low__t738: - p738 >= 0
 c738_load_low__t739: - p739 >= 0
 c739_load_low__t740: - p740 >= 0
 c740_load_low__t741: - p741 >= 0
 c741_load_low__t742: - p742 >= 0
 c742_load_low__t743: - p743 >= 0
 c743_load_low__t744: - p744 >= 0
 c744_load_low__t745: - p745 >= 0
 c745_load_low__t746: - p746 >= 0
 c746_load_low__t747: - p747 >= 0
 c747_load_low__t748: - p748 >= 0
 c748_load_low__t749: - p749 >= 0
 c749_load_low__t750: - p750 >= 0
 c750_load_low__t751: - p751 >= 0
 c751_load_low__t752: - p752 >= 0
 c752_load_low__t753: - p753 >= 0
 c753_load_low__t754: - p754 >= 0
 c754_load_low__t755: - p755 >= 0
 c755_load_low__t756: - p756 >= 0
 c756_load_low__t757: - p757 >= 0
 c757_load_low__t758: - p758 >= 0
 c758_load_low__t759: - p759 >= 0
 c759_load_low__t760: - p760 >= 0
 c760_load_low__t761: - p761 >= 0
 c761_load_low__t762: - p762 >= 0
 c762_load_low__t763: - p763 >= 0
 c763_load_low__t764: - p764 >= 0
 c764_load_low__t765: - p765 >= 0
 c765_load_low__t766: - p766 >= 0
 c766_load_low__t767: - p767 >= 0
 c767_load_low__t768: - p768 >= 0
 c768_load_low__t769: - p769 >= 0
 c769_load_low__t770: - p770 >= 0
 c770_load_low__t771: - p771 >= 0
 c771_load_low__t772: - p772 >= 0
 c772_load_low__t773: - p773 >= 0
 c773_load_low__t774: - p774 >= 0
 c774_load_low__t775: - p775 >= 0
 c775_load_low__t776: - p776 >= 0
 c776_load_low__t777: - p777 >= 0
 c777_load_low__t778: - p778 >= 0
 c778_load_low__t779: - p779 >= 0
 c779_load_low__t780: - p780 >= 0
 c780_load_low__t781: - p781 >= 0
 c781_load_low__t782: - p782 >= 0
 c782_load_low__t783: - p783 >= 0
 c783_load_low__t784: - p784 >= 0
 c784_load_low__t785: - p785 >= 0
 c785_load_low__t786: - p786 >= 0
 c786_load_low__t787: - p787 >= 0
 c787_load_low__t788: - p788 >= 0
 c788_load_low__t789: - p789 >= 0
 c789_load_low__t790: - p790 >= 0
 c790_load_low__t791: - p791 >= 0
 c791_load_low__t792: - p792 >= 0
 c792_load_low__t793: - p793 >= 0
 c793_load_low__t794: - p794 >= 0
 c794_load_low__t795: - p795 >= 0
 c795_load_low__t796: - p796 >= 0
 c796_load_low__t797: - p797 >= 0
 c797_load_low__t798: - p798 >= 0
 c798_load_low__t799: - p799 >= 0
 c799_load_low__t800: - p800 >= 0
 c800_load_low__t801: - p801 >= 0
 c801_load_low__t802: - p802 >= 0
 c802_load_low__t803: - p803 >= 0
 c803_load_low__t804: - p804 >= 0
 c804_load_low__t805: - p805 >= 0
 c805_load_low__t806: - p806 >= 0
 c806_load_low__t807: - p807 >= 0
 c807_load_low__t808: - p808 >= 0
 c808_load_low__t809: - p809 >= 0
 c809_load_low__t810: - p810 >= 0
 c810_load_low__t811: - p811 >= 0
 c811_load_low__t812: - p812 >= 0
 c812_load_low__t813: - p813 >= 0
 c813_load_low__t814: - p814 >= 0
 c814_load_low__t815: - p815 >= 0
 c815_load_low__t816: - p816 >= 0
 c816_load_low__t817: - p817 >= 0
 c817_load_low__t818: - p818 >= 0
 c818_load_low__t819: - p819 >= 0
 c819_load_low__t820: - p820 >= 0
 c820_load_low__t821: - p821 >= 0
 c821_load_low__t822: - p822 >= 0
 c822_load_low__t823: - p823 >= 0
 c823_load_low__t824: - p824 >= 0
 c824_load_low__t825: - p825 >= 0
 c825_load_low__t826: - p826 >= 0
 c826_load_low__t827: - p827 >= 0
 c827_load_low__t828: - p828 >= 0
 c828_load_low__t829: - p829 >= 0
 c829_load_low__t830: - p830 >= 0
 c830_load_low__t831: - p831 >= 0
 c831_load_low__t832: - p832 >= 0
 c832_load_low__t833: - p833 >= 0
 c833_load_low__t834: - p834 >= 0
 c834_load_low__t835: - p835 >= 0
 c835_load_low__t836: - p836 >= 0
 c836_load_low__t837: - p837 >= 0
 c837_load_low__t838: - p838 >= 0
 c838_load_low__t839: - p839 >= 0
 c839_load_low__t840: - p840 >= 0
 c840_load_low__t841: - p841 >= 0
 c841_load_low__t842: - p842 >= 0
 c842_load_low__t843: - p843 >= 0
 c843_load_low__t844: - p844 >= 0
 c844_load_low__t845: - p845 >= 0
 c845_load_low__t846: - p846 >= 0
 c846_load_low__t847: - p847 >= 0
 c847_load_low__t848: - p848 >= 0
 c848_load_low__t849: - p849 >= 0
 c849_load_low__t850: - p850 >= 0
 c850_load_low__t851: - p851 >= 0
 c851_load_low__t852: - p852 >= 0
 c852_load_low__t853: - p853 >= 0
 c853_load_low__t854: - p854 >= 0
 c854_load_low__t855: - p855 >= 0
 c855_load_low__t856: - p856 >= 0
 c856_load_low__t857: - p857 >= 0
 c857_load_low__t858: - p858 >= 0
 c858_load_low__t859: - p859 >= 0
 c859_load_low__t860: - p860 >= 0
 c860_load_low__t861: - p861 >= 0
 c861_load_low__t862: - p862 >= 0
 c862_load_low__t863: - p863 >= 0
 c863_load_low__t864: - p864 >= 0
 c864_load_low__t865: - p865 >= 0
 c865_load_low__t866: - p866 >= 0
 c866_load_low__t867: - p867 >= 0
 c867_load_low__t868: - p868 >= 0
 c868_load_low__t869: - p869 >= 0
 c869_load_low__t870: - p870 >= 0
 c870_load_low__t871: - p871 >= 0
 c871_load_low__t872: - p872 >= 0
 c872_load_low__t873: - p873 >= 0
 c873_load_low__t874: - p874 >= 0
 c874_load_low__t875: - p875 >= 0
 c875_load_low__t876: - p876 >= 0
 c876_load_low__t877: - p877 >= 0
 c877_load_low__t878: - p878 >= 0
 c878_load_low__t879: - p879 >= 0
 c879_load_low__t880: - p880 >= 0
 c880_load_low__t881: - p881 >= 0
 c881_load_low__t882: - p882 >= 0
 c882_load_low__t883: - p883 >= 0
 c883_load_low__t884: - p884 >= 0
 c884_load_low__t885: - p885 >= 0
 c885_load_low__t886: - p886 >= 0
 c886_load_low__t887: - p887 >= 0
 c887_load_low__t888: - p888 >= 0
 c888_load_low__t889: - p889 >= 0
 c889_load_low__t890: - p890 >= 0
 c890_load_low__t891: - p891 >= 0
 c891_load_low__t892: - p892 >= 0
 c892_load_low__t893: - p893 >= 0
 c893_load_low__t894: - p894 >= 0
 c894_load_low__t895: - p895 >= 0
 c895_load_low__t896: - p896 >= 0
 c896_load_low__t897: - p897 >= 0
 c897_load_low__t898: - p898 >= 0
 c898_load_low__t899: - p899 >= 0
 c899_load_low__t900: - p900 >= 0
 c900_load_low__t901: - p901 >= 0
 c901_load_low__t902: - p902 >= 0
 c902_load_low__t903: - p903 >= 0
 c903_load_low__t904: - p904 >= 0
 c904_load_low__t905: - p905 >= 0
 c905_load_low__t906: - p906 >= 0
 c906_load_low__t907: - p907 >= 0
 c907_load_low__t908: - p908 >= 0
 c908_load_low__t909: - p909 >= 0
 c909_load_low__t910: - p910 >= 0
 c910_load_low__t911: - p911 >= 0
 c911_load_low__t912: - p912 >= 0
 c912_load_low__t913: - p913 >= 0
 c913_load_low__t914: - p914 >= 0
 c914_load_low__t915: - p915 >= 0
 c915_load_low__t916: - p916 >= 0
 c916_load_low__t917: - p917 >= 0
 c917_load_low__t918: - p918 >= 0
 c918_load_low__t919: - p919 >= 0
 c919_load_low__t920: - p920 >= 0
 c920_load_low__t921: - p921 >= 0
 c921_load_low__t922: - p922 >= 0
 c922_load_low__t923: - p923 >= 0
 c923_load_low__t924: - p924 >= 0
 c924_load_low__t925: - p925 >= 0
 c925_load_low__t926: - p926 >= 0
 c926_load_low__t927: - p927 >= 0
 c927_load_low__t928: - p928 >= 0
 c928_load_low__t929: - p929 >= 0
 c929_load_low__t930: - p930 >= 0
 c930_load_low__t931: - p931 >= 0
 c931_load_low__t932: - p932 >= 0
 c932_load_low__t933: - p933 >= 0
 c933_load_low__t934: - p934 >= 0
 c934_load_low__t935: - p935 >= 0
 c935_load_low__t936: - p936 >= 0
 c936_load_low__t937: - p937 >= 0
 c937_load_low__t938: - p938 >= 0
 c938_load_low__t939: - p939 >= 0
 c939_load_low__t940: - p940 >= 0
 c940_load_low__t941: - p941 >= 0
 c941_load_low__t942: - p942 >= 0
 c942_load_low__t943: - p943 >= 0
 c943_load_low__t944: - p944 >= 0
 c944_load_low__t945: - p945 >= 0
 c945_load_low__t946: - p946 >= 0
 c946_load_low__t947: - p947 >= 0
 c947_load_low__t948: - p948 >= 0
 c948_load_low__t949: - p949 >= 0
 c949_load_low__t950: - p950 >= 0
 c950_load_low__t951: - p951 >= 0
 c951_load_low__t952: - p952 >= 0
 c952_load_low__t953: - p953 >= 0
 c953_load_low__t954: - p954 >= 0
 c954_load_low__t955: - p955 >= 0
 c955_load_low__t956: - p956 >= 0
 c956_load_low__t957: - p957 >= 0
 c957_load_low__t958: - p958 >= 0
 c958_load_low__t959: - p959 >= 0
 c959_load_low__t960: - p960 >= 0
 c960_load_low__t961: - p961 >= 0
 c961_load_low__t962: - p962 >= 0
 c962_load_low__t963: - p963 >= 0
 c963_load_low__t964: - p964 >= 0
 c964_load_low__t965: - p965 >= 0
 c965_load_low__t966: - p966 >= 0
 c966_load_low__t967: - p967 >= 0
 c967_load_low__t968: - p968 >= 0
 c968_load_low__t969: - p969 >= 0
 c969_load_low__t970: - p970 >= 0
 c970_load_low__t971: - p971 >= 0
 c971_load_low__t972: - p972 >= 0
 c972_load_low__t973: - p973 >= 0
 c973_load_low__t974: - p974 >= 0
 c974_load_low__t975: - p975 >= 0
 c975_load_low__t976: - p976 >= 0
 c976_load_low__t977: - p977 >= 0
 c977_load_low__t978: - p978 >= 0
 c978_load_low__t979: - p979 >= 0
 c979_load_low__t980: - p980 >= 0
 c980_load_low__t981: - p981 >= 0
 c981_load_low__t982: - p982 >= 0
 c982_load_low__t983: - p983 >= 0
 c983_load_low__t984: - p984 >= 0
 c984_load_low__t985: - p985 >= 0
 c985_load_low__t986: - p986 >= 0
 c986_load_low__t987: - p987 >= 0
 c987_load_low__t988: - p988 >= 0
 c988_load_low__t989: - p989 >= 0
 c989_load_low__t990: - p990 >= 0
 c990_load_low__t991: - p991 >= 0
 c991_load_low__t992: - p992 >= 0
 c992_load_low__t993: - p993 >= 0
 c993_load_low__t994: - p994 >= 0
 c994_load_low__t995: - p995 >= 0
 c995_load_low__t996: - p996 >= 0
 c996_load_low__t997: - p997 >= 0
 c997_load_low__t998: - p998 >= 0
 c998_load_low__t999: - p999 >= 0
 c999_load_low__t1000: - p1000 >= 0
 c1000_load_low__t1001: - p1001 >= 0
 c1001_load_low__t1002: - p1002 >= 0
 c1002_load_low__t1003: - p1003 >= 0
 c1003_load_low__t1004: - p1004 >= 0
 c1004_load_low__t1005: - p1005 >= 0
 c1005_load_low__t1006: - p1006 >= 0
 c1006_load_low__t1007: - p1007 >= 0
 c1007_load_low__t1008: - p1008 >= 0
 c1008_load_low__t1009: - p1009 >= 0
 c1009_load_low__t1010: - p1010 >= 0
 c1010_load_low__t1011: - p1011 >= 0
 c1011_load_low__t1012: - p1012 >= 0
 c1012_load_low__t1013: - p1013 >= 0
 c1013_load_low__t1014: - p1014 >= 0
 c1014_load_low__t1015: - p1015 >= 0
 c1015_load_low__t1016: - p1016 >= 0
 c1016_load_low__t1017: - p1017 >= 0
 c1017_load_low__t1018: - p1018 >= 0
 c1018_load_low__t1019: - p1019 >= 0
 c1019_load_low__t1020: - p1020 >= 0
 c1020_load_low__t1021: - p1021 >= 0
 c1021_load_low__t1022: - p1022 >= 0
 c1022_load_low__t1023: - p1023 >= 0
 c1023_load_low__t1024: - p1024 >= 0
 c1024_load_high__t1: p1 >= 1
 c1025_load_high__t2: p2 >= 1
 c1026_load_high__t3: p3 >= 1
 c1027_load_high__t4: p4 >= 1
 c1028_load_high__t5: p5 >= 1
 c1029_load_high__t6: p6 >= 1
 c1030_load_high__t7: p7 >= 1
 c1031_load_high__t8: p8 >= 1
 c1032_load_high__t9: p9 >= 1
 c1033_load_high__t10: p10 >= 1
 c1034_load_high__t11: p11 >= 1
 c1035_load_high__t12: p12 >= 1
 c1036_load_high__t13: p13 >= 1
 c1037_load_high__t14: p14 >= 1
 c1038_load_high__t15: p15 >= 1
 c1039_load_high__t16: p16 >= 1
 c1040_load_high__t17: p17 >= 1
 c1041_load_high__t18: p18 >= 1
 c1042_load_high__t19: p19 >= 1
 c1043_load_high__t20: p20 >= 1
 c1044_load_high__t21: p21 >= 1
 c1045_load_high__t22: p22 >= 1
 c1046_load_high__t23: p23 >= 1
 c1047_load_high__t24: p24 >= 1
 c1048_load_high__t25: p25 >= 1
 c1049_load_high__t26: p26 >= 1
 c1050_load_high__t27: p27 >= 1
 c1051_load_high__t28: p28 >= 1
 c1052_load_high__t29: p29 >= 1
 c1053_load_high__t30: p30 >= 1
 c1054_load_high__t31: p31 >= 1
 c1055_load_high__t32: p32 >= 1
 c1056_load_high__t33: p33 >= 1
 c1057_load_high__t34: p34 >= 1
 c1058_load_high__t35: p35 >= 1
 c1059_load_high__t36: p36 >= 1
 c1060_load_high__t37: p37 >= 1
 c1061_load_high__t38: p38 >= 1
 c1062_load_high__t39: p39 >= 1
 c1063_load_high__t40: p40 >= 1
 c1064_load_high__t41: p41 >= 1
 c1065_load_high__t42: p42 >= 1
 c1066_load_high__t43: p43 >= 1
 c1067_load_high__t44: p44 >= 1
 c1068_load_high__t45: p45 >= 1
 c1069_load_high__t46: p46 >= 1
 c1070_load_high__t47: p47 >= 1
 c1071_load_high__t48: p48 >= 1
 c1072_load_high__t49: p49 >= 1
 c1073_load_high__t50: p50 >= 1
 c1074_load_high__t51: p51 >= 1
 c1075_load_high__t52: p52 >= 1
 c1076_load_high__t53: p53 >= 1
 c1077_load_high__t54: p54 >= 1
 c1078_load_high__t55: p55 >= 1
 c1079_load_high__t56: p56 >= 1
 c1080_load_high__t57: p57 >= 1
 c1081_load_high__t58: p58 >= 1
 c1082_load_high__t59: p59 >= 1
 c1083_load_high__t60: p60 >= 1
 c1084_load_high__t61: p61 >= 1
 c1085_load_high__t62: p62 >= 1
 c1086_load_high__t63: p63 >= 1
 c1087_load_high__t64: p64 >= 1
 c1088_load_high__t65: p65 >= 1
 c1089_load_high__t66: p66 >= 1
 c1090_load_high__t67: p67 >= 1
 c1091_load_high__t68: p68 >= 1
 c1092_load_high__t69: p69 >= 1
 c1093_load_high__t70: p70 >= 1
 c1094_load_high__t71: p71 >= 1
 c1095_load_high__t72: p72 >= 1
 c1096_load_high__t73: p73 >= 1
 c1097_load_high__t74: p74 >= 1
 c1098_load_high__t75: p75 >= 1
 c1099_load_high__t76: p76 >= 1
 c1100_load_high__t77: p77 >= 1
 c1101_load_high__t78: p78 >= 1
 c1102_load_high__t79: p79 >= 1
 c1103_load_high__t80: p80 >= 1
 c1104_load_high__t81: p81 >= 1
 c1105_load_high__t82: p82 >= 1
 c1106_load_high__t83: p83 >= 1
 c1107_load_high__t84: p84 >= 1
 c1108_load_high__t85: p85 >= 1
 c1109_load_high__t86: p86 >= 1
 c1110_load_high__t87: p87 >= 1
 c1111_load_high__t88: p88 >= 1
 c1112_load_high__t89: p89 >= 1
 c1113_load_high__t90: p90 >= 1
 c1114_load_high__t91: p91 >= 1
 c1115_load_high__t92: p92 >= 1
 c1116_load_high__t93: p93 >= 1
 c1117_load_high__t94: p94 >= 1
 c1118_load_high__t95: p95 >= 1
 c1119_load_high__t96: p96 >= 1
 c1120_load_high__t97: p97 >= 1
 c1121_load_high__t98: p98 >= 1
 c1122_load_high__t99: p99 >= 1
 c1123_load_high__t100: p100 >= 1
 c1124_load_high__t101: p101 >= 1
 c1125_load_high__t102: p102 >= 1
 c1126_load_high__t103: p103 >= 1
 c1127_load_high__t104: p104 >= 1
 c1128_load_high__t105: p105 >= 1
 c1129_load_high__t106: p106 >= 1
 c1130_load_high__t107: p107 >= 1
 c1131_load_high__t108: p108 >= 1
 c1132_load_high__t109: p109 >= 1
 c1133_load_high__t110: p110 >= 1
 c1134_load_high__t111: p111 >= 1
 c1135_load_high__t112: p112 >= 1
 c1136_load_high__t113: p113 >= 1
 c1137_load_high__t114: p114 >= 1
 c1138_load_high__t115: p115 >= 1
 c1139_load_high__t116: p116 >= 1
 c1140_load_high__t117: p117 >= 1
 c1141_load_high__t118: p118 >= 1
 c1142_load_high__t119: p119 >= 1
 c1143_load_high__t120: p120 >= 1
 c1144_load_high__t121: p121 >= 1
 c1145_load_high__t122: p122 >= 1
 c1146_load_high__t123: p123 >= 1
 c1147_load_high__t124: p124 >= 1
 c1148_load_high__t125: p125 >= 1
 c1149_load_high__t126: p126 >= 1
 c1150_load_high__t127: p127 >= 1
 c1151_load_high__t128: p128 >= 1
 c1152_load_high__t129: p129 >= 1
 c1153_load_high__t130: p130 >= 1
 c1154_load_high__t131: p131 >= 1
 c1155_load_high__t132: p132 >= 1
 c1156_load_high__t133: p133 >= 1
 c1157_load_high__t134: p134 >= 1
 c1158_load_high__t135: p135 >= 1
 c1159_load_high__t136: p136 >= 1
 c1160_load_high__t137: p137 >= 1
 c1161_load_high__t138: p138 >= 1
 c1162_load_high__t139: p139 >= 1
 c1163_load_high__t140: p140 >= 1
 c1164_load_high__t141: p141 >= 1
 c1165_load_high__t142: p142 >= 1
 c1166_load_high__t143: p143 >= 1
 c1167_load_high__t144: p144 >= 1
 c1168_load_high__t145: p145 >= 1
 c1169_load_high__t146: p146 >= 1
 c1170_load_high__t147: p147 >= 1
 c1171_load_high__t148: p148 >= 1
 c1172_load_high__t149: p149 >= 1
 c1173_load_high__t150: p150 >= 1
 c1174_load_high__t151: p151 >= 1
 c1175_load_high__t152: p152 >= 1
 c1176_load_high__t153: p153 >= 1
 c1177_load_high__t154: p154 >= 1
 c1178_load_high__t155: p155 >= 1
 c1179_load_high__t156: p156 >= 1
 c1180_load_high__t157: p157 >= 1
 c1181_load_high__t158: p158 >= 1
 c1182_load_high__t159: p159 >= 1
 c1183_load_high__t160: p160 >= 1
 c1184_load_high__t161: p161 >= 1
 c1185_load_high__t162: p162 >= 1
 c1186_load_high__t163: p163 >= 1
 c1187_load_high__t164: p164 >= 1
 c1188_load_high__t165: p165 >= 1
 c1189_load_high__t166: p166 >= 1
 c1190_load_high__t167: p167 >= 1
 c1191_load_high__t168: p168 >= 1
 c1192_load_high__t169: p169 >= 1
 c1193_load_high__t170: p170 >= 1
 c1194_load_high__t171: p171 >= 1
 c1195_load_high__t172: p172 >= 1
 c1196_load_high__t173: p173 >= 1
 c1197_load_high__t174: p174 >= 1
 c1198_load_high__t175: p175 >= 1
 c1199_load_high__t176: p176 >= 1
 c1200_load_high__t177: p177 >= 1
 c1201_load_high__t178: p178 >= 1
 c1202_load_high__t179: p179 >= 1
 c1203_load_high__t180: p180 >= 1
 c1204_load_high__t181: p181 >= 1
 c1205_load_high__t182: p182 >= 1
 c1206_load_high__t183: p183 >= 1
 c1207_load_high__t184: p184 >= 1
 c1208_load_high__t185: p185 >= 1
 c1209_load_high__t186: p186 >= 1
 c1210_load_high__t187: p187 >= 1
 c1211_load_high__t188: p188 >= 1
 c1212_load_high__t189: p189 >= 1
 c1213_load_high__t190: p190 >= 1
 c1214_load_high__t191: p191 >= 1
 c1215_load_high__t192: p192 >= 1
 c1216_load_high__t193: p193 >= 1
 c1217_load_high__t194: p194 >= 1
 c1218_load_high__t195: p195 >= 1
 c1219_load_high__t196: p196 >= 1
 c1220_load_high__t197: p197 >= 1
 c1221_load_high__t198: p198 >= 1
 c1222_load_high__t199: p199 >= 1
 c1223_load_high__t200: p200 >= 1
 c1224_load_high__t201: p201 >= 1
 c1225_load_high__t202: p202 >= 1
 c1226_load_high__t203: p203 >= 1
 c1227_load_high__t204: p204 >= 1
 c1228_load_high__t205: p205 >= 1
 c1229_load_high__t206: p206 >= 1
 c1230_load_high__t207: p207 >= 1
 c1231_load_high__t208: p208 >= 1
 c1232_load_high__t209: p209 >= 1
 c1233_load_high__t210: p210 >= 1
 c1234_load_high__t211: p211 >= 1
 c1235_load_high__t212: p212 >= 1
 c1236_load_high__t213: p213 >= 1
 c1237_load_high__t214: p214 >= 1
 c1238_load_high__t215: p215 >= 1
 c1239_load_high__t216: p216 >= 1
 c1240_load_high__t217: p217 >= 1
 c1241_load_high__t218: p218 >= 1
 c1242_load_high__t219: p219 >= 1
 c1243_load_high__t220: p220 >= 1
 c1244_load_high__t221: p221 >= 1
 c1245_load_high__t222: p222 >= 1
 c1246_load_high__t223: p223 >= 1
 c1247_load_high__t224: p224 >= 1
 c1248_load_high__t225: p225 >= 1
 c1249_load_high__t226: p226 >= 1
 c1250_load_high__t227: p227 >= 1
 c1251_load_high__t228: p228 >= 1
 c1252_load_high__t229: p229 >= 1
 c1253_load_high__t230: p230 >= 1
 c1254_load_high__t231: p231 >= 1
 c1255_load_high__t232: p232 >= 1
 c1256_load_high__t233: p233 >= 1
 c1257_load_high__t234: p234 >= 1
 c1258_load_high__t235: p235 >= 1
 c1259_load_high__t236: p236 >= 1
 c1260_load_high__t237: p237 >= 1
 c1261_load_high__t238: p238 >= 1
 c1262_load_high__t239: p239 >= 1
 c1263_load_high__t240: p240 >= 1
 c1264_load_high__t241: p241 >= 1
 c1265_load_high__t242: p242 >= 1
 c1266_load_high__t243: p243 >= 1
 c1267_load_high__t244: p244 >= 1
 c1268_load_high__t245: p245 >= 1
 c1269_load_high__t246: p246 >= 1
 c1270_load_high__t247: p247 >= 1
 c1271_load_high__t248: p248 >= 1
 c1272_load_high__t249: p249 >= 1
 c1273_load_high__t250: p250 >= 1
 c1274_load_high__t251: p251 >= 1
 c1275_load_high__t252: p252 >= 1
 c1276_load_high__t253: p253 >= 1
 c1277_load_high__t254: p254 >= 1
 c1278_load_high__t255: p255 >= 1
 c1279_load_high__t256: p256 >= 1
 c1280_load_high__t257: p257 >= 1
 c1281_load_high__t258: p258 >= 1
 c1282_load_high__t259: p259 >= 1
 c1283_load_high__t260: p260 >= 1
 c1284_load_high__t261: p261 >= 1
 c1285_load_high__t262: p262 >= 1
 c1286_load_high__t263: p263 >= 1
 c1287_load_high__t264: p264 >= 1
 c1288_load_high__t265: p265 >= 1
 c1289_load_high__t266: p266 >= 1
 c1290_load_high__t267: p267 >= 1
 c1291_load_high__t268: p268 >= 1
 c1292_load_high__t269: p269 >= 1
 c1293_load_high__t270: p270 >= 1
 c1294_load_high__t271: p271 >= 1
 c1295_load_high__t272: p272 >= 1
 c1296_load_high__t273: p273 >= 1
 c1297_load_high__t274: p274 >= 1
 c1298_load_high__t275: p275 >= 1
 c1299_load_high__t276: p276 >= 1
 c1300_load_high__t277: p277 >= 1
 c1301_load_high__t278: p278 >= 1
 c1302_load_high__t279: p279 >= 1
 c1303_load_high__t280: p280 >= 1
 c1304_load_high__t281: p281 >= 1
 c1305_load_high__t282: p282 >= 1
 c1306_load_high__t283: p283 >= 1
 c1307_load_high__t284: p284 >= 1
 c1308_load_high__t285: p285 >= 1
 c1309_load_high__t286: p286 >= 1
 c1310_load_high__t287: p287 >= 1
 c1311_load_high__t288: p288 >= 1
 c1312_load_high__t289: p289 >= 1
 c1313_load_high__t290: p290 >= 1
 c1314_load_high__t291: p291 >= 1
 c1315_load_high__t292: p292 >= 1
 c1316_load_high__t293: p293 >= 1
 c1317_load_high__t294: p294 >= 1
 c1318_load_high__t295: p295 >= 1
 c1319_load_high__t296: p296 >= 1
 c1320_load_high__t297: p297 >= 1
 c1321_load_high__t298: p298 >= 1
 c1322_load_high__t299: p299 >= 1
 c1323_load_high__t300: p300 >= 1
 c1324_load_high__t301: p301 >= 1
 c1325_load_high__t302: p302 >= 1
 c1326_load_high__t303: p303 >= 1
 c1327_load_high__t304: p304 >= 1
 c1328_load_high__t305: p305 >= 1
 c1329_load_high__t306: p306 >= 1
 c1330_load_high__t307: p307 >= 1
 c1331_load_high__t308: p308 >= 1
 c1332_load_high__t309: p309 >= 1
 c1333_load_high__t310: p310 >= 1
 c1334_load_high__t311: p311 >= 1
 c1335_load_high__t312: p312 >= 1
 c1336_load_high__t313: p313 >= 1
 c1337_load_high__t314: p314 >= 1
 c1338_load_high__t315: p315 >= 1
 c1339_load_high__t316: p316 >= 1
 c1340_load_high__t317: p317 >= 1
 c1341_load_high__t318: p318 >= 1
 c1342_load_high__t319: p319 >= 1
 c1343_load_high__t320: p320 >= 1
 c1344_load_high__t321: p321 >= 1
 c1345_load_high__t322: p322 >= 1
 c1346_load_high__t323: p323 >= 1
 c1347_load_high__t324: p324 >= 1
 c1348_load_high__t325: p325 >= 1
 c1349_load_high__t326: p326 >= 1
 c1350_load_high__t327: p327 >= 1
 c1351_load_high__t328: p328 >= 1
 c1352_load_high__t329: p329 >= 1
 c1353_load_high__t330: p330 >= 1
 c1354_load_high__t331: p331 >= 1
 c1355_load_high__t332: p332 >= 1
 c1356_load_high__t333: p333 >= 1
 c1357_load_high__t334: p334 >= 1
 c1358_load_high__t335: p335 >= 1
 c1359_load_high__t336: p336 >= 1
 c1360_load_high__t337: p337 >= 1
 c1361_load_high__t338: p338 >= 1
 c1362_load_high__t339: p339 >= 1
 c1363_load_high__t340: p340 >= 1
 c1364_load_high__t341: p341 >= 1
 c1365_load_high__t342: p342 >= 1
 c1366_load_high__t343: p343 >= 1
 c1367_load_high__t344: p344 >= 1
 c1368_load_high__t345: p345 >= 1
 c1369_load_high__t346: p346 >= 1
 c1370_load_high__t347: p347 >= 1
 c1371_load_high__t348: p348 >= 1
 c1372_load_high__t349: p349 >= 1
 c1373_load_high__t350: p350 >= 1
 c1374_load_high__t351: p351 >= 1
 c1375_load_high__t352: p352 >= 1
 c1376_load_high__t353: p353 >= 1
 c1377_load_high__t354: p354 >= 1
 c1378_load_high__t355: p355 >= 1
 c1379_load_high__t356: p356 >= 1
 c1380_load_high__t357: p357 >= 1
 c1381_load_high__t358: p358 >= 1
 c1382_load_high__t359: p359 >= 1
 c1383_load_high__t360: p360 >= 1
 c1384_load_high__t361: p361 >= 1
 c1385_load_high__t362: p362 >= 1
 c1386_load_high__t363: p363 >= 1
 c1387_load_high__t364: p364 >= 1
 c1388_load_high__t365: p365 >= 1
 c1389_load_high__t366: p366 >= 1
 c1390_load_high__t367: p367 >= 1
 c1391_load_high__t368: p368 >= 1
 c1392_load_high__t369: p369 >= 1
 c1393_load_high__t370: p370 >= 1
 c1394_load_high__t371: p371 >= 1
 c1395_load_high__t372: p372 >= 1
 c1396_load_high__t373: p373 >= 1
 c1397_load_high__t374: p374 >= 1
 c1398_load_high__t375: p375 >= 1
 c1399_load_high__t376: p376 >= 1
 c1400_load_high__t377: p377 >= 1
 c1401_load_high__t378: p378 >= 1
 c1402_load_high__t379: p379 >= 1
 c1403_load_high__t380: p380 >= 1
 c1404_load_high__t381: p381 >= 1
 c1405_load_high__t382: p382 >= 1
 c1406_load_high__t383: p383 >= 1
 c1407_load_high__t384: p384 >= 1
 c1408_load_high__t385: p385 >= 1
 c1409_load_high__t386: p386 >= 1
 c1410_load_high__t387: p387 >= 1
 c1411_load_high__t388: p388 >= 1
 c1412_load_high__t389: p389 >= 1
 c1413_load_high__t390: p390 >= 1
 c1414_load_high__t391: p391 >= 1
 c1415_load_high__t392: p392 >= 1
 c1416_load_high__t393: p393 >= 1
 c1417_load_high__t394: p394 >= 1
 c1418_load_high__t395: p395 >= 1
 c1419_load_high__t396: p396 >= 1
 c1420_load_high__t397: p397 >= 1
 c1421_load_high__t398: p398 >= 1
 c1422_load_high__t399: p399 >= 1
 c1423_load_high__t400: p400 >= 1
 c1424_load_high__t401: p401 >= 1
 c1425_load_high__t402: p402 >= 1
 c1426_load_high__t403: p403 >= 1
 c1427_load_high__t404: p404 >= 1
 c1428_load_high__t405: p405 >= 1
 c1429_load_high__t406: p406 >= 1
 c1430_load_high__t407: p407 >= 1
 c1431_load_high__t408: p408 >= 1
 c1432_load_high__t409: p409 >= 1
 c1433_load_high__t410: p410 >= 1
 c1434_load_high__t411: p411 >= 1
 c1435_load_high__t412: p412 >= 1
 c1436_load_high__t413: p413 >= 1
 c1437_load_high__t414: p414 >= 1
 c1438_load_high__t415: p415 >= 1
 c1439_load_high__t416: p416 >= 1
 c1440_load_high__t417: p417 >= 1
 c1441_load_high__t418: p418 >= 1
 c1442_load_high__t419: p419 >= 1
 c1443_load_high__t420: p420 >= 1
 c1444_load_high__t421: p421 >= 1
 c1445_load_high__t422: p422 >= 1
 c1446_load_high__t423: p423 >= 1
 c1447_load_high__t424: p424 >= 1
 c1448_load_high__t425: p425 >= 1
 c1449_load_high__t426: p426 >= 1
 c1450_load_high__t427: p427 >= 1
 c1451_load_high__t428: p428 >= 1
 c1452_load_high__t429: p429 >= 1
 c1453_load_high__t430: p430 >= 1
 c1454_load_high__t431: p431 >= 1
 c1455_load_high__t432: p432 >= 1
 c1456_load_high__t433: p433 >= 1
 c1457_load_high__t434: p434 >= 1
 c1458_load_high__t435: p435 >= 1
 c1459_load_high__t436: p436 >= 1
 c1460_load_high__t437: p437 >= 1
 c1461_load_high__t438: p438 >= 1
 c1462_load_high__t439: p439 >= 1
 c1463_load_high__t440: p440 >= 1
 c1464_load_high__t441: p441 >= 1
 c1465_load_high__t442: p442 >= 1
 c1466_load_high__t443: p443 >= 1
 c1467_load_high__t444: p444 >= 1
 c1468_load_high__t445: p445 >= 1
 c1469_load_high__t446: p446 >= 1
 c1470_load_high__t447: p447 >= 1
 c1471_load_high__t448: p448 >= 1
 c1472_load_high__t449: p449 >= 1
 c1473_load_high__t450: p450 >= 1
 c1474_load_high__t451: p451 >= 1
 c1475_load_high__t452: p452 >= 1
 c1476_load_high__t453: p453 >= 1
 c1477_load_high__t454: p454 >= 1
 c1478_load_high__t455: p455 >= 1
 c1479_load_high__t456: p456 >= 1
 c1480_load_high__t457: p457 >= 1
 c1481_load_high__t458: p458 >= 1
 c1482_load_high__t459: p459 >= 1
 c1483_load_high__t460: p460 >= 1
 c1484_load_high__t461: p461 >= 1
 c1485_load_high__t462: p462 >= 1
 c1486_load_high__t463: p463 >= 1
 c1487_load_high__t464: p464 >= 1
 c1488_load_high__t465: p465 >= 1
 c1489_load_high__t466: p466 >= 1
 c1490_load_high__t467: p467 >= 1
 c1491_load_high__t468: p468 >= 1
 c1492_load_high__t469: p469 >= 1
 c1493_load_high__t470: p470 >= 1
 c1494_load_high__t471: p471 >= 1
 c1495_load_high__t472: p472 >= 1
 c1496_load_high__t473: p473 >= 1
 c1497_load_high__t474: p474 >= 1
 c1498_load_high__t475: p475 >= 1
 c1499_load_high__t476: p476 >= 1
 c1500_load_high__t477: p477 >= 1
 c1501_load_high__t478: p478 >= 1
 c1502_load_high__t479: p479 >= 1
 c1503_load_high__t480: p480 >= 1
 c1504_load_high__t481: p481 >= 1
 c1505_load_high__t482: p482 >= 1
 c1506_load_high__t483: p483 >= 1
 c1507_load_high__t484: p484 >= 1
 c1508_load_high__t485: p485 >= 1
 c1509_load_high__t486: p486 >= 1
 c1510_load_high__t487: p487 >= 1
 c1511_load_high__t488: p488 >= 1
 c1512_load_high__t489: p489 >= 1
 c1513_load_high__t490: p490 >= 1
 c1514_load_high__t491: p491 >= 1
 c1515_load_high__t492: p492 >= 1
 c1516_load_high__t493: p493 >= 1
 c1517_load_high__t494: p494 >= 1
 c1518_load_high__t495: p495 >= 1
 c1519_load_high__t496: p496 >= 1
 c1520_load_high__t497: p497 >= 1
 c1521_load_high__t498: p498 >= 1
 c1522_load_high__t499: p499 >= 1
 c1523_load_high__t500: p500 >= 1
 c1524_load_high__t501: p501 >= 1
 c1525_load_high__t502: p502 >= 1
 c1526_load_high__t503: p503 >= 1
 c1527_load_high__t504: p504 >= 1
 c1528_load_high__t505: p505 >= 1
 c1529_load_high__t506: p506 >= 1
 c1530_load_high__t507: p507 >= 1
 c1531_load_high__t508: p508 >= 1
 c1532_load_high__t509: p509 >= 1
 c1533_load_high__t510: p510 >= 1
 c1534_load_high__t511: p511 >= 1
 c1535_load_high__t512: p512 >= 1
 c1536_load_high__t513: p513 >= 1
 c1537_load_high__t514: p514 >= 1
 c1538_load_high__t515: p515 >= 1
 c1539_load_high__t516: p516 >= 1
 c1540_load_high__t517: p517 >= 1
 c1541_load_high__t518: p518 >= 1
 c1542_load_high__t519: p519 >= 1
 c1543_load_high__t520: p520 >= 1
 c1544_load_high__t521: p521 >= 1
 c1545_load_high__t522: p522 >= 1
 c1546_load_high__t523: p523 >= 1
 c1547_load_high__t524: p524 >= 1
 c1548_load_high__t525: p525 >= 1
 c1549_load_high__t526: p526 >= 1
 c1550_load_high__t527: p527 >= 1
 c1551_load_high__t528: p528 >= 1
 c1552_load_high__t529: p529 >= 1
 c1553_load_high__t530: p530 >= 1
 c1554_load_high__t531: p531 >= 1
 c1555_load_high__t532: p532 >= 1
 c1556_load_high__t533: p533 >= 1
 c1557_load_high__t534: p534 >= 1
 c1558_load_high__t535: p535 >= 1
 c1559_load_high__t536: p536 >= 1
 c1560_load_high__t537: p537 >= 1
 c1561_load_high__t538: p538 >= 1
 c1562_load_high__t539: p539 >= 1
 c1563_load_high__t540: p540 >= 1
 c1564_load_high__t541: p541 >= 1
 c1565_load_high__t542: p542 >= 1
 c1566_load_high__t543: p543 >= 1
 c1567_load_high__t544: p544 >= 1
 c1568_load_high__t545: p545 >= 1
 c1569_load_high__t546: p546 >= 1
 c1570_load_high__t547: p547 >= 1
 c1571_load_high__t548: p548 >= 1
 c1572_load_high__t549: p549 >= 1
 c1573_load_high__t550: p550 >= 1
 c1574_load_high__t551: p551 >= 1
 c1575_load_high__t552: p552 >= 1
 c1576_load_high__t553: p553 >= 1
 c1577_load_high__t554: p554 >= 1
 c1578_load_high__t555: p555 >= 1
 c1579_load_high__t556: p556 >= 1
 c1580_load_high__t557: p557 >= 1
 c1581_load_high__t558: p558 >= 1
 c1582_load_high__t559: p559 >= 1
 c1583_load_high__t560: p560 >= 1
 c1584_load_high__t561: p561 >= 1
 c1585_load_high__t562: p562 >= 1
 c1586_load_high__t563: p563 >= 1
 c1587_load_high__t564: p564 >= 1
 c1588_load_high__t565: p565 >= 1
 c1589_load_high__t566: p566 >= 1
 c1590_load_high__t567: p567 >= 1
 c1591_load_high__t568: p568 >= 1
 c1592_load_high__t569: p569 >= 1
 c1593_load_high__t570: p570 >= 1
 c1594_load_high__t571: p571 >= 1
 c1595_load_high__t572: p572 >= 1
 c1596_load_high__t573: p573 >= 1
 c1597_load_high__t574: p574 >= 1
 c1598_load_high__t575: p575 >= 1
 c1599_load_high__t576: p576 >= 1
 c1600_load_high__t577: p577 >= 1
 c1601_load_high__t578: p578 >= 1
 c1602_load_high__t579: p579 >= 1
 c1603_load_high__t580: p580 >= 1
 c1604_load_high__t581: p581 >= 1
 c1605_load_high__t582: p582 >= 1
 c1606_load_high__t583: p583 >= 1
 c1607_load_high__t584: p584 >= 1
 c1608_load_high__t585: p585 >= 1
 c1609_load_high__t586: p586 >= 1
 c1610_load_high__t587: p587 >= 1
 c1611_load_high__t588: p588 >= 1
 c1612_load_high__t589: p589 >= 1
 c1613_load_high__t590: p590 >= 1
 c1614_load_high__t591: p591 >= 1
 c1615_load_high__t592: p592 >= 1
 c1616_load_high__t593: p593 >= 1
 c1617_load_high__t594: p594 >= 1
 c1618_load_high__t595: p595 >= 1
 c1619_load_high__t596: p596 >= 1
 c1620_load_high__t597: p597 >= 1
 c1621_load_high__t598: p598 >= 1
 c1622_load_high__t599: p599 >= 1
 c1623_load_high__t600: p600 >= 1
 c1624_load_high__t601: p601 >= 1
 c1625_load_high__t602: p602 >= 1
 c1626_load_high__t603: p603 >= 1
 c1627_load_high__t604: p604 >= 1
 c1628_load_high__t605: p605 >= 1
 c1629_load_high__t606: p606 >= 1
 c1630_load_high__t607: p607 >= 1
 c1631_load_high__t608: p608 >= 1
 c1632_load_high__t609: p609 >= 1
 c1633_load_high__t610: p610 >= 1
 c1634_load_high__t611: p611 >= 1
 c1635_load_high__t612: p612 >= 1
 c1636_load_high__t613: p613 >= 1
 c1637_load_high__t614: p614 >= 1
 c1638_load_high__t615: p615 >= 1
 c1639_load_high__t616: p616 >= 1
 c1640_load_high__t617: p617 >= 1
 c1641_load_high__t618: p618 >= 1
 c1642_load_high__t619: p619 >= 1
 c1643_load_high__t620: p620 >= 1
 c1644_load_high__t621: p621 >= 1
 c1645_load_high__t622: p622 >= 1
 c1646_load_high__t623: p623 >= 1
 c1647_load_high__t624: p624 >= 1
 c1648_load_high__t625: p625 >= 1
 c1649_load_high__t626: p626 >= 1
 c1650_load_high__t627: p627 >= 1
 c1651_load_high__t628: p628 >= 1
 c1652_load_high__t629: p629 >= 1
 c1653_load_high__t630: p630 >= 1
 c1654_load_high__t631: p631 >= 1
 c1655_load_high__t632: p632 >= 1
 c1656_load_high__t633: p633 >= 1
 c1657_load_high__t634: p634 >= 1
 c1658_load_high__t635: p635 >= 1
 c1659_load_high__t636: p636 >= 1
 c1660_load_high__t637: p637 >= 1
 c1661_load_high__t638: p638 >= 1
 c1662_load_high__t639: p639 >= 1
 c1663_load_high__t640: p640 >= 1
 c1664_load_high__t641: p641 >= 1
 c1665_load_high__t642: p642 >= 1
 c1666_load_high__t643: p643 >= 1
 c1667_load_high__t644: p644 >= 1
 c1668_load_high__t645: p645 >= 1
 c1669_load_high__t646: p646 >= 1
 c1670_load_high__t647: p647 >= 1
 c1671_load_high__t648: p648 >= 1
 c1672_load_high__t649: p649 >= 1
 c1673_load_high__t650: p650 >= 1
 c1674_load_high__t651: p651 >= 1
 c1675_load_high__t652: p652 >= 1
 c1676_load_high__t653: p653 >= 1
 c1677_load_high__t654: p654 >= 1
 c1678_load_high__t655: p655 >= 1
 c1679_load_high__t656: p656 >= 1
 c1680_load_high__t657: p657 >= 1
 c1681_load_high__t658: p658 >= 1
 c1682_load_high__t659: p659 >= 1
 c1683_load_high__t660: p660 >= 1
 c1684_load_high__t661: p661 >= 1
 c1685_load_high__t662: p662 >= 1
 c1686_load_high__t663: p663 >= 1
 c1687_load_high__t664: p664 >= 1
 c1688_load_high__t665: p665 >= 1
 c1689_load_high__t666: p666 >= 1
 c1690_load_high__t667: p667 >= 1
 c1691_load_high__t668: p668 >= 1
 c1692_load_high__t669: p669 >= 1
 c1693_load_high__t670: p670 >= 1
 c1694_load_high__t671: p671 >= 1
 c1695_load_high__t672: p672 >= 1
 c1696_load_high__t673: p673 >= 1
 c1697_load_high__t674: p674 >= 1
 c1698_load_high__t675: p675 >= 1
 c1699_load_high__t676: p676 >= 1
 c1700_load_high__t677: p677 >= 1
 c1701_load_high__t678: p678 >= 1
 c1702_load_high__t679: p679 >= 1
 c1703_load_high__t680: p680 >= 1
 c1704_load_high__t681: p681 >= 1
 c1705_load_high__t682: p682 >= 1
 c1706_load_high__t683: p683 >= 1
 c1707_load_high__t684: p684 >= 1
 c1708_load_high__t685: p685 >= 1
 c1709_load_high__t686: p686 >= 1
 c1710_load_high__t687: p687 >= 1
 c1711_load_high__t688: p688 >= 1
 c1712_load_high__t689: p689 >= 1
 c1713_load_high__t690: p690 >= 1
 c1714_load_high__t691: p691 >= 1
 c1715_load_high__t692: p692 >= 1
 c1716_load_high__t693: p693 >= 1
 c1717_load_high__t694: p694 >= 1
 c1718_load_high__t695: p695 >= 1
 c1719_load_high__t696: p696 >= 1
 c1720_load_high__t697: p697 >= 1
 c1721_load_high__t698: p698 >= 1
 c1722_load_high__t699: p699 >= 1
 c1723_load_high__t700: p700 >= 1
 c1724_load_high__t701: p701 >= 1
 c1725_load_high__t702: p702 >= 1
 c1726_load_high__t703: p703 >= 1
 c1727_load_high__t704: p704 >= 1
 c1728_load_high__t705: p705 >= 1
 c1729_load_high__t706: p706 >= 1
 c1730_load_high__t707: p707 >= 1
 c1731_load_high__t708: p708 >= 1
 c1732_load_high__t709: p709 >= 1
 c1733_load_high__t710: p710 >= 1
 c1734_load_high__t711: p711 >= 1
 c1735_load_high__t712: p712 >= 1
 c1736_load_high__t713: p713 >= 1
 c1737_load_high__t714: p714 >= 1
 c1738_load_high__t715: p715 >= 1
 c1739_load_high__t716: p716 >= 1
 c1740_load_high__t717: p717 >= 1
 c1741_load_high__t718: p718 >= 1
 c1742_load_high__t719: p719 >= 1
 c1743_load_high__t720: p720 >= 1
 c1744_load_high__t721: p721 >= 1
 c1745_load_high__t722: p722 >= 1
 c1746_load_high__t723: p723 >= 1
 c1747_load_high__t724: p724 >= 1
 c1748_load_high__t725: p725 >= 1
 c1749_load_high__t726: p726 >= 1
 c1750_load_high__t727: p727 >= 1
 c1751_load_high__t728: p728 >= 1
 c1752_load_high__t729: p729 >= 1
 c1753_load_high__t730: p730 >= 1
 c1754_load_high__t731: p731 >= 1
 c1755_load_high__t732: p732 >= 1
 c1756_load_high__t733: p733 >= 1
 c1757_load_high__t734: p734 >= 1
 c1758_load_high__t735: p735 >= 1
 c1759_load_high__t736: p736 >= 1
 c1760_load_high__t737: p737 >= 1
 c1761_load_high__t738: p738 >= 1
 c1762_load_high__t739: p739 >= 1
 c1763_load_high__t740: p740 >= 1
 c1764_load_high__t741: p741 >= 1
 c1765_load_high__t742: p742 >= 1
 c1766_load_high__t743: p743 >= 1
 c1767_load_high__t744: p744 >= 1
 c1768_load_high__t745: p745 >= 1
 c1769_load_high__t746: p746 >= 1
 c1770_load_high__t747: p747 >= 1
 c1771_load_high__t748: p748 >= 1
 c1772_load_high__t749: p749 >= 1
 c1773_load_high__t750: p750 >= 1
 c1774_load_high__t751: p751 >= 1
 c1775_load_high__t752: p752 >= 1
 c1776_load_high__t753: p753 >= 1
 c1777_load_high__t754: p754 >= 1
 c1778_load_high__t755: p755 >= 1
 c1779_load_high__t756: p756 >= 1
 c1780_load_high__t757: p757 >= 1
 c1781_load_high__t758: p758 >= 1
 c1782_load_high__t759: p759 >= 1
 c1783_load_high__t760: p760 >= 1
 c1784_load_high__t761: p761 >= 1
 c1785_load_high__t762: p762 >= 1
 c1786_load_high__t763: p763 >= 1
 c1787_load_high__t764: p764 >= 1
 c1788_load_high__t765: p765 >= 1
 c1789_load_high__t766: p766 >= 1
 c1790_load_high__t767: p767 >= 1
 c1791_load_high__t768: p768 >= 1
 c1792_load_high__t769: p769 >= 1
 c1793_load_high__t770: p770 >= 1
 c1794_load_high__t771: p771 >= 1
 c1795_load_high__t772: p772 >= 1
 c1796_load_high__t773: p773 >= 1
 c1797_load_high__t774: p774 >= 1
 c1798_load_high__t775: p775 >= 1
 c1799_load_high__t776: p776 >= 1
 c1800_load_high__t777: p777 >= 1
 c1801_load_high__t778: p778 >= 1
 c1802_load_high__t779: p779 >= 1
 c1803_load_high__t780: p780 >= 1
 c1804_load_high__t781: p781 >= 1
 c1805_load_high__t782: p782 >= 1
 c1806_load_high__t783: p783 >= 1
 c1807_load_high__t784: p784 >= 1
 c1808_load_high__t785: p785 >= 1
 c1809_load_high__t786: p786 >= 1
 c1810_load_high__t787: p787 >= 1
 c1811_load_high__t788: p788 >= 1
 c1812_load_high__t789: p789 >= 1
 c1813_load_high__t790: p790 >= 1
 c1814_load_high__t791: p791 >= 1
 c1815_load_high__t792: p792 >= 1
 c1816_load_high__t793: p793 >= 1
 c1817_load_high__t794: p794 >= 1
 c1818_load_high__t795: p795 >= 1
 c1819_load_high__t796: p796 >= 1
 c1820_load_high__t797: p797 >= 1
 c1821_load_high__t798: p798 >= 1
 c1822_load_high__t799: p799 >= 1
 c1823_load_high__t800: p800 >= 1
 c1824_load_high__t801: p801 >= 1
 c1825_load_high__t802: p802 >= 1
 c1826_load_high__t803: p803 >= 1
 c1827_load_high__t804: p804 >= 1
 c1828_load_high__t805: p805 >= 1
 c1829_load_high__t806: p806 >= 1
 c1830_load_high__t807: p807 >= 1
 c1831_load_high__t808: p808 >= 1
 c1832_load_high__t809: p809 >= 1
 c1833_load_high__t810: p810 >= 1
 c1834_load_high__t811: p811 >= 1
 c1835_load_high__t812: p812 >= 1
 c1836_load_high__t813: p813 >= 1
 c1837_load_high__t814: p814 >= 1
 c1838_load_high__t815: p815 >= 1
 c1839_load_high__t816: p816 >= 1
 c1840_load_high__t817: p817 >= 1
 c1841_load_high__t818: p818 >= 1
 c1842_load_high__t819: p819 >= 1
 c1843_load_high__t820: p820 >= 1
 c1844_load_high__t821: p821 >= 1
 c1845_load_high__t822: p822 >= 1
 c1846_load_high__t823: p823 >= 1
 c1847_load_high__t824: p824 >= 1
 c1848_load_high__t825: p825 >= 1
 c1849_load_high__t826: p826 >= 1
 c1850_load_high__t827: p827 >= 1
 c1851_load_high__t828: p828 >= 1
 c1852_load_high__t829: p829 >= 1
 c1853_load_high__t830: p830 >= 1
 c1854_load_high__t831: p831 >= 1
 c1855_load_high__t832: p832 >= 1
 c1856_load_high__t833: p833 >= 1
 c1857_load_high__t834: p834 >= 1
 c1858_load_high__t835: p835 >= 1
 c1859_load_high__t836: p836 >= 1
 c1860_load_high__t837: p837 >= 1
 c1861_load_high__t838: p838 >= 1
 c1862_load_high__t839: p839 >= 1
 c1863_load_high__t840: p840 >= 1
 c1864_load_high__t841: p841 >= 1
 c1865_load_high__t842: p842 >= 1
 c1866_load_high__t843: p843 >= 1
 c1867_load_high__t844: p844 >= 1
 c1868_load_high__t845: p845 >= 1
 c1869_load_high__t846: p846 >= 1
 c1870_load_high__t847: p847 >= 1
 c1871_load_high__t848: p848 >= 1
 c1872_load_high__t849: p849 >= 1
 c1873_load_high__t850: p850 >= 1
 c1874_load_high__t851: p851 >= 1
 c1875_load_high__t852: p852 >= 1
 c1876_load_high__t853: p853 >= 1
 c1877_load_high__t854: p854 >= 1
 c1878_load_high__t855: p855 >= 1
 c1879_load_high__t856: p856 >= 1
 c1880_load_high__t857: p857 >= 1
 c1881_load_high__t858: p858 >= 1
 c1882_load_high__t859: p859 >= 1
 c1883_load_high__t860: p860 >= 1
 c1884_load_high__t861: p861 >= 1
 c1885_load_high__t862: p862 >= 1
 c1886_load_high__t863: p863 >= 1
 c1887_load_high__t864: p864 >= 1
 c1888_load_high__t865: p865 >= 1
 c1889_load_high__t866: p866 >= 1
 c1890_load_high__t867: p867 >= 1
 c1891_load_high__t868: p868 >= 1
 c1892_load_high__t869: p869 >= 1
 c1893_load_high__t870: p870 >= 1
 c1894_load_high__t871: p871 >= 1
 c1895_load_high__t872: p872 >= 1
 c1896_load_high__t873: p873 >= 1
 c1897_load_high__t874: p874 >= 1
 c1898_load_high__t875: p875 >= 1
 c1899_load_high__t876: p876 >= 1
 c1900_load_high__t877: p877 >= 1
 c1901_load_high__t878: p878 >= 1
 c1902_load_high__t879: p879 >= 1
 c1903_load_high__t880: p880 >= 1
 c1904_load_high__t881: p881 >= 1
 c1905_load_high__t882: p882 >= 1
 c1906_load_high__t883: p883 >= 1
 c1907_load_high__t884: p884 >= 1
 c1908_load_high__t885: p885 >= 1
 c1909_load_high__t886: p886 >= 1
 c1910_load_high__t887: p887 >= 1
 c1911_load_high__t888: p888 >= 1
 c1912_load_high__t889: p889 >= 1
 c1913_load_high__t890: p890 >= 1
 c1914_load_high__t891: p891 >= 1
 c1915_load_high__t892: p892 >= 1
 c1916_load_high__t893: p893 >= 1
 c1917_load_high__t894: p894 >= 1
 c1918_load_high__t895: p895 >= 1
 c1919_load_high__t896: p896 >= 1
 c1920_load_high__t897: p897 >= 1
 c1921_load_high__t898: p898 >= 1
 c1922_load_high__t899: p899 >= 1
 c1923_load_high__t900: p900 >= 1
 c1924_load_high__t901: p901 >= 1
 c1925_load_high__t902: p902 >= 1
 c1926_load_high__t903: p903 >= 1
 c1927_load_high__t904: p904 >= 1
 c1928_load_high__t905: p905 >= 1
 c1929_load_high__t906: p906 >= 1
 c1930_load_high__t907: p907 >= 1
 c1931_load_high__t908: p908 >= 1
 c1932_load_high__t909: p909 >= 1
 c1933_load_high__t910: p910 >= 1
 c1934_load_high__t911: p911 >= 1
 c1935_load_high__t912: p912 >= 1
 c1936_load_high__t913: p913 >= 1
 c1937_load_high__t914: p914 >= 1
 c1938_load_high__t915: p915 >= 1
 c1939_load_high__t916: p916 >= 1
 c1940_load_high__t917: p917 >= 1
 c1941_load_high__t918: p918 >= 1
 c1942_load_high__t919: p919 >= 1
 c1943_load_high__t920: p920 >= 1
 c1944_load_high__t921: p921 >= 1
 c1945_load_high__t922: p922 >= 1
 c1946_load_high__t923: p923 >= 1
 c1947_load_high__t924: p924 >= 1
 c1948_load_high__t925: p925 >= 1
 c1949_load_high__t926: p926 >= 1
 c1950_load_high__t927: p927 >= 1
 c1951_load_high__t928: p928 >= 1
 c1952_load_high__t929: p929 >= 1
 c1953_load_high__t930: p930 >= 1
 c1954_load_high__t931: p931 >= 1
 c1955_load_high__t932: p932 >= 1
 c1956_load_high__t933: p933 >= 1
 c1957_load_high__t934: p934 >= 1
 c1958_load_high__t935: p935 >= 1
 c1959_load_high__t936: p936 >= 1
 c1960_load_high__t937: p937 >= 1
 c1961_load_high__t938: p938 >= 1
 c1962_load_high__t939: p939 >= 1
 c1963_load_high__t940: p940 >= 1
 c1964_load_high__t941: p941 >= 1
 c1965_load_high__t942: p942 >= 1
 c1966_load_high__t943: p943 >= 1
 c1967_load_high__t944: p944 >= 1
 c1968_load_high__t945: p945 >= 1
 c1969_load_high__t946: p946 >= 1
 c1970_load_high__t947: p947 >= 1
 c1971_load_high__t948: p948 >= 1
 c1972_load_high__t949: p949 >= 1
 c1973_load_high__t950: p950 >= 1
 c1974_load_high__t951: p951 >= 1
 c1975_load_high__t952: p952 >= 1
 c1976_load_high__t953: p953 >= 1
 c1977_load_high__t954: p954 >= 1
 c1978_load_high__t955: p955 >= 1
 c1979_load_high__t956: p956 >= 1
 c1980_load_high__t957: p957 >= 1
 c1981_load_high__t958: p958 >= 1
 c1982_load_high__t959: p959 >= 1
 c1983_load_high__t960: p960 >= 1
 c1984_load_high__t961: p961 >= 1
 c1985_load_high__t962: p962 >= 1
 c1986_load_high__t963: p963 >= 1
 c1987_load_high__t964: p964 >= 1
 c1988_load_high__t965: p965 >= 1
 c1989_load_high__t966: p966 >= 1
 c1990_load_high__t967: p967 >= 1
 c1991_load_high__t968: p968 >= 1
 c1992_load_high__t969: p969 >= 1
 c1993_load_high__t970: p970 >= 1
 c1994_load_high__t971: p971 >= 1
 c1995_load_high__t972: p972 >= 1
 c1996_load_high__t973: p973 >= 1
 c1997_load_high__t974: p974 >= 1
 c1998_load_high__t975: p975 >= 1
 c1999_load_high__t976: p976 >= 1
 c2000_load_high__t977: p977 >= 1
 c2001_load_high__t978: p978 >= 1
 c2002_load_high__t979: p979 >= 1
 c2003_load_high__t980: p980 >= 1
 c2004_load_high__t981: p981 >= 1
 c2005_load_high__t982: p982 >= 1
 c2006_load_high__t983: p983 >= 1
 c2007_load_high__t984: p984 >= 1
 c2008_load_high__t985: p985 >= 1
 c2009_load_high__t986: p986 >= 1
 c2010_load_high__t987: p987 >= 1
 c2011_load_high__t988: p988 >= 1
 c2012_load_high__t989: p989 >= 1
 c2013_load_high__t990: p990 >= 1
 c2014_load_high__t991: p991 >= 1
 c2015_load_high__t992: p992 >= 1
 c2016_load_high__t993: p993 >= 1
 c2017_load_high__t994: p994 >= 1
 c2018_load_high__t995: p995 >= 1
 c2019_load_high__t996: p996 >= 1
 c2020_load_high__t997: p997 >= 1
 c2021_load_high__t998: p998 >= 1
 c2022_load_high__t999: p999 >= 1
 c2023_load_high__t1000: p1000 >= 1
 c2024_load_high__t1001: p1001 >= 1
 c2025_load_high__t1002: p1002 >= 1
 c2026_load_high__t1003: p1003 >= 1
 c2027_load_high__t1004: p1004 >= 1
 c2028_load_high__t1005: p1005 >= 1
 c2029_load_high__t1006: p1006 >= 1
 c2030_load_high__t1007: p1007 >= 1
 c2031_load_high__t1008: p1008 >= 1
 c2032_load_high__t1009: p1009 >= 1
 c2033_load_high__t1010: p1010 >= 1
 c2034_load_high__t1011: p1011 >= 1
 c2035_load_high__t1012: p1012 >= 1
 c2036_load_high__t1013: p1013 >= 1
 c2037_load_high__t1014: p1014 >= 1
 c2038_load_high__t1015: p1015 >= 1
 c2039_load_high__t1016: p1016 >= 1
 c2040_load_high__t1017: p1017 >= 1
 c2041_load_high__t1018: p1018 >= 1
 c2042_load_high__t1019: p1019 >= 1
 c2043_load_high__t1020: p1020 >= 1
 c2044_load_high__t1021: p1021 >= 1
 c2045_load_high__t1022: p1022 >= 1
 c2046_load_high__t1023: p1023 >= 1
 c2047_load_high__t1024: p1024 >= 1
Binary
 p1
 p2
 p3
 p4
 p5
 p6
 p7
 p8
 p9
 p10
 p11
 p12
 p13
 p14
 p15
 p16
 p17
 p18
 p19
 p20
 p21
 p22
 p23
 p24
 p25
 p26
 p27
 p28
 p29
 p30
 p31
 p32
 p33
 p34
 p35
 p36
 p37
 p38
 p39
 p40
 p41
 p42
 p43
 p44
 p45
 p46
 p47
 p48
 p49
 p50
 p51
 p52
 p53
 p54
 p55
 p56
 p57
 p58
 p59
 p60
 p61
 p62
 p63
 p64
 p65
 p66
 p67
 p68
 p69
 p70
 p71
 p72
 p73
 p74
 p75
 p76
 p77
 p78
 p79
 p80
 p81
 p82
 p83
 p84
 p85
 p86
 p87
 p88
 p89
 p90
 p91
 p92
 p93
 p94
 p95
 p96
 p97
 p98
 p99
 p100
 p101
 p102
 p103
 p104
 p105
 p106
 p107
 p108
 p109
 p110
 p111
 p112
 p113
 p114
 p115
 p116
 p117
 p118
 p119
 p120
 p121
 p122
 p123
 p124
 p125
 p126
 p127
 p128
 p129
 p130
 p131
 p132
 p133
 p134
 p135
 p136
 p137
 p138
 p139
 p140
 p141
 p142
 p143
 p144
 p145
 p146
 p147
 p148
 p149
 p150
 p151
 p152
 p153
 p154
 p155
 p156
 p157
 p158
 p159
 p160
 p161
 p162
 p163
 p164
 p165
 p166
 p167
 p168
 p169
 p170
 p171
 p172
 p173
 p174
 p175
 p176
 p177
 p178
 p179
 p180
 p181
 p182
 p183
 p184
 p185
 p186
 p187
 p188
 p189
 p190
 p191
 p192
 p193
 p194
 p195
 p196
 p197
 p198
 p199
 p200
 p201
 p202
 p203
 p204
 p205
 p206
 p207
 p208
 p209
 p210
 p211
 p212
 p213
 p214
 p215
 p216
 p217
 p218
 p219
 p220
 p221
 p222
 p223
 p224
 p225
 p226
 p227
 p228
 p229
 p230
 p231
 p232
 p233
 p234
 p235
 p236
 p237
 p238
 p239
 p240
 p241
 p242
 p243
 p244
 p245
 p246
 p247
 p248
 p249
 p250
 p251
 p252
 p253
 p254
 p255
 p256
 p257
 p258
 p259
 p260
 p261
 p262
 p263
 p264
 p265
 p266
 p267
 p268
 p269
 p270
 p271
 p272
 p273
 p274
 p275
 p276
 p277
 p278
 p279
 p280
 p281
 p282
 p283
 p284
 p285
 p286
 p287
 p288
 p289
 p290
 p291
 p292
 p293
 p294
 p295
 p296
 p297
 p298
 p299
 p300
 p301
 p302
 p303
 p304
 p305
 p306
 p307
 p308
 p309
 p310
 p311
 p312
 p313
 p314
 p315
 p316
 p317
 p318
 p319
 p320
 p321
 p322
 p323
 p324
 p325
 p326
 p327
 p328
 p329
 p330
 p331
 p332
 p333
 p334
 p335
 p336
 p337
 p338
 p339
 p340
 p341
 p342
 p343
 p344
 p345
 p346
 p347
 p348
 p349
 p350
 p351
 p352
 p353
 p354
 p355
 p356
 p357
 p358
 p359
 p360
 p361
 p362
 p363
 p364
 p365
 p366
 p367
 p368
 p369
 p370
 p371
 p372
 p373
 p374
 p375
 p376
 p377
 p378
 p379
 p380
 p381
 p382
 p383
 p384
 p385
 p386
 p387
 p388
 p389
 p390
 p391
 p392
 p393
 p394
 p395
 p396
 p397
 p398
 p399
 p400
 p401
 p402
 p403
 p404
 p405
 p406
 p407
 p408
 p409
 p410
 p411
 p412
 p413
 p414
 p415
 p416
 p417
 p418
 p419
 p420
 p421
 p422
 p423
 p424
 p425
 p426
 p427
 p428
 p429
 p430
 p431
 p432
 p433
 p434
 p435
 p436
 p437
 p438
 p439
 p440
 p441
 p442
 p443
 p444
 p445
 p446
 p447
 p448
 p449
 p450
 p451
 p452
 p453
 p454
 p455
 p456
 p457
 p458
 p459
 p460
 p461
 p462
 p463
 p464
 p465
 p466
 p467
 p468
 p469
 p470
 p471
 p472
 p473
 p474
 p475
 p476
 p477
 p478
 p479
 p480
 p481
 p482
 p483
 p484
 p485
 p486
 p487
 p488
 p489
 p490
 p491
 p492
 p493
 p494
 p495
 p496
 p497
 p498
 p499
 p500
 p501
 p502
 p503
 p504
 p505
 p506
 p507
 p508
 p509
 p510
 p511
 p512
 p513
 p514
 p515
 p516
 p517
 p518
 p519
 p520
 p521
 p522
 p523
 p524
 p525
 p526
 p527
 p528
 p529
 p530
 p531
 p532
 p533
 p534
 p535
 p536
 p537
 p538
 p539
 p540
 p541
 p542
 p543
 p544
 p545
 p546
 p547
 p548
 p549
 p550
 p551
 p552
 p553
 p554
 p555
 p556
 p557
 p558
 p559
 p560
 p561
 p562
 p563
 p564
 p565
 p566
 p567
 p568
 p569
 p570
 p571
 p572
 p573
 p574
 p575
 p576
 p577
 p578
 p579
 p580
 p581
 p582
 p583
 p584
 p585
 p586
 p587
 p588
 p589
 p590
 p591
 p592
 p593
 p594
 p595
 p596
 p597
 p598
 p599
 p600
 p601
 p602
 p603
 p604
 p605
 p606
 p607
 p608
 p609
 p610
 p611
 p612
 p613
 p614
 p615
 p616
 p617
 p618
 p619
 p620
 p621
 p622
 p623
 p624
 p625
 p626
 p627
 p628
 p629
 p630
 p631
 p632
 p633
 p634
 p635
 p636
 p637
 p638
 p639
 p640
 p641
 p642
 p643
 p644
 p645
 p646
 p647
 p648
 p649
 p650
 p651
 p652
 p653
 p654
 p655
 p656
 p657
 p658
 p659
 p660
 p661
 p662
 p663
 p664
 p665
 p666
 p667
 p668
 p669
 p670
 p671
 p672
 p673
 p674
 p675
 p676
 p677
 p678
 p679
 p680
 p681
 p682
 p683
 p684
 p685
 p686
 p687
 p688
 p689
 p690
 p691
 p692
 p693
 p694
 p695
 p696
 p697
 p698
 p699
 p700
 p701
 p702
 p703
 p704
 p705
 p706
 p707
 p708
 p709
 p710
 p711
 p712
 p713
 p714
 p715
 p716
 p717
 p718
 p719
 p720
 p721
 p722
 p723
 p724
 p725
 p726
 p727
 p728
 p729
 p730
 p731
 p732
 p733
 p734
 p735
 p736
 p737
 p738
 p739
 p740
 p741
 p742
 p743
 p744
 p745
 p746
 p747
 p748
 p749
 p750
 p751
 p752
 p753
 p754
 p755
 p756
 p757
 p758
 p759
 p760
 p761
 p762
 p763
 p764
 p765
 p766
 p767
 p768
 p769
 p770
 p771
 p772
 p773
 p774
 p775
 p776
 p777
 p778
 p779
 p780
 p781
 p782
 p783
 p784
 p785
 p786
 p787
 p788
 p789
 p790
 p791
 p792
 p793
 p794
 p795
 p796
 p797
 p798
 p799
 p800
 p801
 p802
 p803
 p804
 p805
 p806
 p807
 p808
 p809
 p810
 p811
 p812
 p813
 p814
 p815
 p816
 p817
 p818
 p819
 p820
 p821
 p822
 p823
 p824
 p825
 p826
 p827
 p828
 p829
 p830
 p831
 p832
 p833
 p834
 p835
 p836
 p837
 p838
 p839
 p840
 p841
 p842
 p843
 p844
 p845
 p846
 p847
 p848
 p849
 p850
 p851
 p852
 p853
 p854
 p855
 p856
 p857
 p858
 p859
 p860
 p861
 p862
 p863
 p864
 p865
 p866
 p867
 p868
 p869
 p870
 p871
 p872
 p873
 p874
 p875
 p876
 p877
 p878
 p879
 p880
 p881
 p882
 p883
 p884
 p885
 p886
 p887
 p888
 p889
 p890
 p891
 p892
 p893
 p894
 p895
 p896
 p897
 p898
 p899
 p900
 p901
 p902
 p903
 p904
 p905
 p906
 p907
 p908
 p909
 p910
 p911
 p912
 p913
 p914
 p915
 p916
 p917
 p918
 p919
 p920
 p921
 p922
 p923
 p924
 p925
 p926
 p927
 p928
 p929
 p930
 p931
 p932
 p933
 p934
 p935
 p936
 p937
 p938
 p939
 p940
 p941
 p942
 p943
 p944
 p945
 p946
 p947
 p948
 p949
 p950
 p951
 p952
 p953
 p954
 p955
 p956
 p957
 p958
 p959
 p960
 p961
 p962
 p963
 p964
 p965
 p966
 p967
 p968
 p969
 p970
 p971
 p972
 p973
 p974
 p975
 p976
 p977
 p978
 p979
 p980
 p981
 p982
 p983
 p984
 p985
 p986
 p987
 p988
 p989
 p990
 p991
 p992
 p993
 p994
 p995
 p996
 p997
 p998
 p999
 p1000
 p1001
 p1002
 p1003
 p1004
 p1005
 p1006
 p1007
 p1008
 p1009
 p1010
 p1011
 p1012
 p1013
 p1014
 p1015
 p1016
 p1017
 p1018
 p1019
 p1020
 p1021
 p1022
 p1023
 p1024
End
