\ Boolean forbidden-tuple encoding
Minimize
 obj: 0
Subject To
 c0_load_low__u4: a1 + a2 + a3 + a4 + a5 + a6 + a7 - a8 >= 0
 c1_load_low__u4: a1 + a2 + a3 + a4 + a5 + a6 - a7 + a8 >= 0
 c2_load_low__u4: a1 + a2 + a3 + a4 + a5 + a6 - a7 - a8 >= -1
 c3_load_low__u4: a1 + a2 + a3 + a4 + a5 - a6 + a7 + a8 >= 0
 c4_load_low__u4: a1 + a2 + a3 + a4 + a5 - a6 + a7 - a8 >= -1
 c5_load_low__u4: a1 + a2 + a3 + a4 + a5 - a6 - a7 + a8 >= -1
 c6_load_low__u4: a1 + a2 + a3 + a4 + a5 - a6 - a7 - a8 >= -2
 c7_load_low__u4: a1 + a2 + a3 + a4 - a5 + a6 + a7 + a8 >= 0
 c8_load_low__u4: a1 + a2 + a3 + a4 - a5 + a6 + a7 - a8 >= -1
 c9_load_low__u4: a1 + a2 + a3 + a4 - a5 + a6 - a7 + a8 >= -1
 c10_load_low__u4: a1 + a2 + a3 + a4 - a5 + a6 - a7 - a8 >= -2
 c11_load_low__u4: a1 + a2 + a3 + a4 - a5 - a6 + a7 + a8 >= -1
 c12_load_low__u4: a1 + a2 + a3 + a4 - a5 - a6 + a7 - a8 >= -2
 c13_load_low__u4: a1 + a2 + a3 + a4 - a5 - a6 - a7 + a8 >= -2
 c14_load_low__u4: a1 + a2 + a3 + a4 - a5 - a6 - a7 - a8 >= -3
 c15_load_low__u4: a1 + a2 + a3 - a4 + a5 + a6 + a7 + a8 >= 0
 c16_load_low__u4: a1 + a2 + a3 - a4 + a5 + a6 + a7 - a8 >= -1
 c17_load_low__u4: a1 + a2 + a3 - a4 + a5 + a6 - a7 + a8 >= -1
 c18_load_low__u4: a1 + a2 + a3 - a4 + a5 + a6 - a7 - a8 >= -2
 c19_load_low__u4: a1 + a2 + a3 - a4 + a5 - a6 + a7 + a8 >= -1
 c20_load_low__u4: a1 + a2 + a3 - a4 + a5 - a6 + a7 - a8 >= -2
 c21_load_low__u4: a1 + a2 + a3 - a4 + a5 - a6 - a7 + a8 >= -2
 c22_load_low__u4: a1 + a2 + a3 - a4 + a5 - a6 - a7 - a8 >= -3
 c23_load_low__u4: a1 + a2 + a3 - a4 - a5 + a6 + a7 + a8 >= -1
 c24_load_low__u4: a1 + a2 + a3 - a4 - a5 + a6 + a7 - a8 >= -2
 c25_load_low__u4: a1 + a2 + a3 - a4 - a5 + a6 - a7 + a8 >= -2
 c26_load_low__u4: a1 + a2 + a3 - a4 - a5 + a6 - a7 - a8 >= -3
 c27_load_low__u4: a1 + a2 + a3 - a4 - a5 - a6 + a7 + a8 >= -2
 c28_load_low__u4: a1 + a2 + a3 - a4 - a5 - a6 + a7 - a8 >= -3
 c29_load_low__u4: a1 + a2 + a3 - a4 - a5 - a6 - a7 + a8 >= -3
 c30_load_low__u4: a1 + a2 + a3 - a4 - a5 - a6 - a7 - a8 >= -4
 c31_load_low__u4: a1 + a2 - a3 + a4 + a5 + a6 + a7 + a8 >= 0
 c32_load_low__u4: a1 + a2 - a3 + a4 + a5 + a6 + a7 - a8 >= -1
 c33_load_low__u4: a1 + a2 - a3 + a4 + a5 + a6 - a7 + a8 >= -1
 c34_load_low__u4: a1 + a2 - a3 + a4 + a5 + a6 - a7 - a8 >= -2
 c35_load_low__u4: a1 + a2 - a3 + a4 + a5 - a6 + a7 + a8 >= -1
 c36_load_low__u4: a1 + a2 - a3 + a4 + a5 - a6 + a7 - a8 >= -2
 c37_load_low__u4: a1 + a2 - a3 + a4 + a5 - a6 - a7 + a8 >= -2
 c38_load_low__u4: a1 + a2 - a3 + a4 + a5 - a6 - a7 - a8 >= -3
 c39_load_low__u4: a1 + a2 - a3 + a4 - a5 + a6 + a7 + a8 >= -1
 c40_load_low__u4: a1 + a2 - a3 + a4 - a5 + a6 + a7 - a8 >= -2
 c41_load_low__u4: a1 + a2 - a3 + a4 - a5 + a6 - a7 + a8 >= -2
 c42_load_low__u4: a1 + a2 - a3 + a4 - a5 + a6 - a7 - a8 >= -3
 c43_load_low__u4: a1 + a2 - a3 + a4 - a5 - a6 + a7 + a8 >= -2
 c44_load_low__u4: a1 + a2 - a3 + a4 - a5 - a6 + a7 - a8 >= -3
 c45_load_low__u4: a1 + a2 - a3 + a4 - a5 - a6 - a7 + a8 >= -3
 c46_load_low__u4: a1 + a2 - a3 + a4 - a5 - a6 - a7 - a8 >= -4
 c47_load_low__u4: a1 + a2 - a3 - a4 + a5 + a6 + a7 + a8 >= -1
 c48_load_low__u4: a1 + a2 - a3 - a4 + a5 + a6 + a7 - a8 >= -2
 c49_load_low__u4: a1 + a2 - a3 - a4 + a5 + a6 - a7 + a8 >= -2
 c50_load_low__u4: a1 + a2 - a3 - a4 + a5 + a6 - a7 - a8 >= -3
 c51_load_low__u4: a1 + a2 - a3 - a4 + a5 - a6 + a7 + a8 >= -2
 c52_load_low__u4: a1 + a2 - a3 - a4 + a5 - a6 + a7 - a8 >= -3
 c53_load_low__u4: a1 + a2 - a3 - a4 + a5 - a6 - a7 + a8 >= -3
 c54_load_low__u4: a1 + a2 - a3 - a4 + a5 - a6 - a7 - a8 >= -4
 c55_load_low__u4: a1 + a2 - a3 - a4 - a5 + a6 + a7 + a8 >= -2
 c56_load_low__u4: a1 + a2 - a3 - a4 - a5 + a6 + a7 - a8 >= -3
 c57_load_low__u4: a1 + a2 - a3 - a4 - a5 + a6 - a7 + a8 >= -3
 c58_load_low__u4: a1 + a2 - a3 - a4 - a5 + a6 - a7 - a8 >= -4
 c59_load_low__u4: a1 + a2 - a3 - a4 - a5 - a6 + a7 + a8 >= -3
 c60_load_low__u4: a1 + a2 - a3 - a4 - a5 - a6 + a7 - a8 >= -4
 c61_load_low__u4: a1 + a2 - a3 - a4 - a5 - a6 - a7 + a8 >= -4
 c62_load_low__u4: a1 + a2 - a3 - a4 - a5 - a6 - a7 - a8 >= -5
 c63_load_low__u4: a1 - a2 + a3 + a4 + a5 + a6 + a7 - a8 >= -1
 c64_load_low__u4: a1 - a2 + a3 + a4 + a5 + a6 - a7 + a8 >= -1
 c65_load_low__u4: a1 - a2 + a3 + a4 + a5 + a6 - a7 - a8 >= -2
 c66_load_low__u4: a1 - a2 + a3 + a4 + a5 - a6 + a7 + a8 >= -1
 c67_load_low__u4: a1 - a2 + a3 + a4 + a5 - a6 + a7 - a8 >= -2
 c68_load_low__u4: a1 - a2 + a3 + a4 + a5 - a6 - a7 + a8 >= -2
 c69_load_low__u4: a1 - a2 + a3 + a4 + a5 - a6 - a7 - a8 >= -3
 c70_load_low__u4: a1 - a2 + a3 + a4 - a5 + a6 + a7 + a8 >= -1
 c71_load_low__u4: a1 - a2 + a3 + a4 - a5 + a6 + a7 - a8 >= -2
 c72_load_low__u4: a1 - a2 + a3 + a4 - a5 + a6 - a7 + a8 >= -2
 c73_load_low__u4: a1 - a2 + a3 + a4 - a5 + a6 - a7 - a8 >= -3
 c74_load_low__u4: a1 - a2 + a3 + a4 - a5 - a6 + a7 + a8 >= -2
 c75_load_low__u4: a1 - a2 + a3 + a4 - a5 - a6 + a7 - a8 >= -3
 c76_load_low__u4: a1 - a2 + a3 + a4 - a5 - a6 - a7 + a8 >= -3
 c77_load_low__u4: a1 - a2 + a3 + a4 - a5 - a6 - a7 - a8 >= -4
 c78_load_low__u4: a1 - a2 + a3 - a4 + a5 + a6 + a7 + a8 >= -1
 c79_load_low__u4: a1 - a2 + a3 - a4 + a5 + a6 + a7 - a8 >= -2
 c80_load_low__u4: a1 - a2 + a3 - a4 + a5 + a6 - a7 + a8 >= -2
 c81_load_low__u4: a1 - a2 + a3 - a4 + a5 + a6 - a7 - a8 >= -3
 c82_load_low__u4: a1 - a2 + a3 - a4 + a5 - a6 + a7 + a8 >= -2
 c83_load_low__u4: a1 - a2 + a3 - a4 + a5 - a6 + a7 - a8 >= -3
 c84_load_low__u4: a1 - a2 + a3 - a4 + a5 - a6 - a7 + a8 >= -3
 c85_load_low__u4: a1 - a2 + a3 - a4 + a5 - a6 - a7 - a8 >= -4
 c86_load_low__u4: a1 - a2 + a3 - a4 - a5 + a6 + a7 + a8 >= -2
 c87_load_low__u4: a1 - a2 + a3 - a4 - a5 + a6 + a7 - a8 >= -3
 c88_load_low__u4: a1 - a2 + a3 - a4 - a5 + a6 - a7 + a8 >= -3
 c89_load_low__u4: a1 - a2 + a3 - a4 - a5 + a6 - a7 - a8 >= -4
 c90_load_low__u4: a1 - a2 + a3 - a4 - a5 - a6 + a7 + a8 >= -3
 c91_load_low__u4: a1 - a2 + a3 - a4 - a5 - a6 + a7 - a8 >= -4
 c92_load_low__u4: a1 - a2 + a3 - a4 - a5 - a6 - a7 + a8 >= -4
 c93_load_low__u4: a1 - a2 + a3 - a4 - a5 - a6 - a7 - a8 >= -5
 c94_load_low__u4: a1 - a2 - a3 + a4 + a5 + a6 + a7 + a8 >= -1
 c95_load_low__u4: a1 - a2 - a3 + a4 + a5 + a6 + a7 - a8 >= -2
 c96_load_low__u4: a1 - a2 - a3 + a4 + a5 + a6 - a7 + a8 >= -2
 c97_load_low__u4: a1 - a2 - a3 + a4 + a5 + a6 - a7 - a8 >= -3
 c98_load_low__u4: a1 - a2 - a3 + a4 + a5 - a6 + a7 + a8 >= -2
 c99_load_low__u4: a1 - a2 - a3 + a4 + a5 - a6 + a7 - a8 >= -3
 c100_load_low__u4: a1 - a2 - a3 + a4 + a5 - a6 - a7 + a8 >= -3
 c101_load_low__u4: a1 - a2 - a3 + a4 + a5 - a6 - a7 - a8 >= -4
 c102_load_low__u4: a1 - a2 - a3 + a4 - a5 + a6 + a7 + a8 >= -2
 c103_load_low__u4: a1 - a2 - a3 + a4 - a5 + a6 + a7 - a8 >= -3
 c104_load_low__u4: a1 - a2 - a3 + a4 - a5 + a6 - a7 + a8 >= -3
 c105_load_low__u4: a1 - a2 - a3 + a4 - a5 + a6 - a7 - a8 >= -4
 c106_load_low__u4: a1 - a2 - a3 + a4 - a5 - a6 + a7 + a8 >= -3
 c107_load_low__u4: a1 - a2 - a3 + a4 - a5 - a6 + a7 - a8 >= -4
 c108_load_low__u4: a1 - a2 - a3 + a4 - a5 - a6 - a7 + a8 >= -4
 c109_load_low__u4: a1 - a2 - a3 + a4 - a5 - a6 - a7 - a8 >= -5
 c110_load_low__u4: a1 - a2 - a3 - a4 + a5 + a6 + a7 + a8 >= -2
 c111_load_low__u4: a1 - a2 - a3 - a4 + a5 + a6 + a7 - a8 >= -3
 c112_load_low__u4: a1 - a2 - a3 - a4 + a5 + a6 - a7 + a8 >= -3
 c113_load_low__u4: a1 - a2 - a3 - a4 + a5 + a6 - a7 - a8 >= -4
 c114_load_low__u4: a1 - a2 - a3 - a4 + a5 - a6 + a7 + a8 >= -3
 c115_load_low__u4: a1 - a2 - a3 - a4 + a5 - a6 + a7 - a8 >= -4
 c116_load_low__u4: a1 - a2 - a3 - a4 + a5 - a6 - a7 + a8 >= -4
 c117_load_low__u4: a1 - a2 - a3 - a4 + a5 - a6 - a7 - a8 >= -5
 c118_load_low__u4: a1 - a2 - a3 - a4 - a5 + a6 + a7 + a8 >= -3
 c119_load_low__u4: a1 - a2 - a3 - a4 - a5 + a6 + a7 - a8 >= -4
 c120_load_low__u4: a1 - a2 - a3 - a4 - a5 + a6 - a7 + a8 >= -4
 c121_load_low__u4: a1 - a2 - a3 - a4 - a5 + a6 - a7 - a8 >= -5
 c122_load_low__u4: a1 - a2 - a3 - a4 - a5 - a6 + a7 + a8 >= -4
 c123_load_low__u4: a1 - a2 - a3 - a4 - a5 - a6 + a7 - a8 >= -5
 c124_load_low__u4: a1 - a2 - a3 - a4 - a5 - a6 - a7 + a8 >= -5
 c125_load_low__u4: a1 - a2 - a3 - a4 - a5 - a6 - a7 - a8 >= -6
 c126_load_low__u4: - a1 + a2 + a3 + a4 + a5 + a6 + a7 - a8 >= -1
 c127_load_low__u4: - a1 + a2 + a3 + a4 + a5 + a6 - a7 + a8 >= -1
 c128_load_low__u4: - a1 + a2 + a3 + a4 + a5 + a6 - a7 - a8 >= -2
 c129_load_low__u4: - a1 + a2 + a3 + a4 + a5 - a6 + a7 + a8 >= -1
 c130_load_low__u4: - a1 + a2 + a3 + a4 + a5 - a6 + a7 - a8 >= -2
 c131_load_low__u4: - a1 + a2 + a3 + a4 + a5 - a6 - a7 + a8 >= -2
 c132_load_low__u4: - a1 + a2 + a3 + a4 + a5 - a6 - a7 - a8 >= -3
 c133_load_low__u4: - a1 + a2 + a3 + a4 - a5 + a6 + a7 + a8 >= -1
 c134_load_low__u4: - a1 + a2 + a3 + a4 - a5 + a6 + a7 - a8 >= -2
 c135_load_low__u4: - a1 + a2 + a3 + a4 - a5 + a6 - a7 + a8 >= -2
 c136_load_low__u4: - a1 + a2 + a3 + a4 - a5 + a6 - a7 - a8 >= -3
 c137_load_low__u4: - a1 + a2 + a3 + a4 - a5 - a6 + a7 + a8 >= -2
 c138_load_low__u4: - a1 + a2 + a3 + a4 - a5 - a6 + a7 - a8 >= -3
 c139_load_low__u4: - a1 + a2 + a3 + a4 - a5 - a6 - a7 + a8 >= -3
 c140_load_low__u4: - a1 + a2 + a3 + a4 - a5 - a6 - a7 - a8 >= -4
 c141_load_low__u4: - a1 + a2 + a3 - a4 + a5 + a6 + a7 + a8 >= -1
 c142_load_low__u4: - a1 + a2 + a3 - a4 + a5 + a6 + a7 - a8 >= -2
 c143_load_low__u4: - a1 + a2 + a3 - a4 + a5 + a6 - a7 + a8 >= -2
 c144_load_low__u4: - a1 + a2 + a3 - a4 + a5 + a6 - a7 - a8 >= -3
 c145_load_low__u4: - a1 + a2 + a3 - a4 + a5 - a6 + a7 + a8 >= -2
 c146_load_low__u4: - a1 + a2 + a3 - a4 + a5 - a6 + a7 - a8 >= -3
 c147_load_low__u4: - a1 + a2 + a3 - a4 + a5 - a6 - a7 + a8 >= -3
 c148_load_low__u4: - a1 + a2 + a3 - a4 + a5 - a6 - a7 - a8 >= -4
 c149_load_low__u4: - a1 + a2 + a3 - a4 - a5 + a6 + a7 + a8 >= -2
 c150_load_low__u4: - a1 + a2 + a3 - a4 - a5 + a6 + a7 - a8 >= -3
 c151_load_low__u4: - a1 + a2 + a3 - a4 - a5 + a6 - a7 + a8 >= -3
 c152_load_low__u4: - a1 + a2 + a3 - a4 - a5 + a6 - a7 - a8 >= -4
 c153_load_low__u4: - a1 + a2 + a3 - a4 - a5 - a6 + a7 + a8 >= -3
 c154_load_low__u4: - a1 + a2 + a3 - a4 - a5 - a6 + a7 - a8 >= -4
 c155_load_low__u4: - a1 + a2 + a3 - a4 - a5 - a6 - a7 + a8 >= -4
 c156_load_low__u4: - a1 + a2 + a3 - a4 - a5 - a6 - a7 - a8 >= -5
 c157_load_low__u4: - a1 + a2 - a3 + a4 + a5 + a6 + a7 + a8 >= -1
 c158_load_low__u4: - a1 + a2 - a3 + a4 + a5 + a6 + a7 - a8 >= -2
 c159_load_low__u4: - a1 + a2 - a3 + a4 + a5 + a6 - a7 + a8 >= -2
 c160_load_low__u4: - a1 + a2 - a3 + a4 + a5 + a6 - a7 - a8 >= -3
 c161_load_low__u4: - a1 + a2 - a3 + a4 + a5 - a6 + a7 + a8 >= -2
 c162_load_low__u4: - a1 + a2 - a3 + a4 + a5 - a6 + a7 - a8 >= -3
 c163_load_low__u4: - a1 + a2 - a3 + a4 + a5 - a6 - a7 + a8 >= -3
 c164_load_low__u4: - a1 + a2 - a3 + a4 + a5 - a6 - a7 - a8 >= -4
 c165_load_low__u4: - a1 + a2 - a3 + a4 - a5 + a6 + a7 + a8 >= -2
 c166_load_low__u4: - a1 + a2 - a3 + a4 - a5 + a6 + a7 - a8 >= -3
 c167_load_low__u4: - a1 + a2 - a3 + a4 - a5 + a6 - a7 + a8 >= -3
 c168_load_low__u4: - a1 + a2 - a3 + a4 - a5 + a6 - a7 - a8 >= -4
 c169_load_low__u4: - a1 + a2 - a3 + a4 - a5 - a6 + a7 + a8 >= -3
 c170_load_low__u4: - a1 + a2 - a3 + a4 - a5 - a6 + a7 - a8 >= -4
 c171_load_low__u4: - a1 + a2 - a3 + a4 - a5 - a6 - a7 + a8 >= -4
 c172_load_low__u4: - a1 + a2 - a3 + a4 - a5 - a6 - a7 - a8 >= -5
 c173_load_low__u4: - a1 + a2 - a3 - a4 + a5 + a6 + a7 + a8 >= -2
 c174_load_low__u4: - a1 + a2 - a3 - a4 + a5 + a6 + a7 - a8 >= -3
 c175_load_low__u4: - a1 + a2 - a3 - a4 + a5 + a6 - a7 + a8 >= -3
 c176_load_low__u4: - a1 + a2 - a3 - a4 + a5 + a6 - a7 - a8 >= -4
 c177_load_low__u4: - a1 + a2 - a3 - a4 + a5 - a6 + a7 + a8 >= -3
 c178_load_low__u4: - a1 + a2 - a3 - a4 + a5 - a6 + a7 - a8 >= -4
 c179_load_low__u4: - a1 + a2 - a3 - a4 + a5 - a6 - a7 + a8 >= -4
 c180_load_low__u4: - a1 + a2 - a3 - a4 + a5 - a6 - a7 - a8 >= -5
 c181_load_low__u4: - a1 + a2 - a3 - a4 - a5 + a6 + a7 + a8 >= -3
 c182_load_low__u4: - a1 + a2 - a3 - a4 - a5 + a6 + a7 - a8 >= -4
 c183_load_low__u4: - a1 + a2 - a3 - a4 - a5 + a6 - a7 + a8 >= -4
 c184_load_low__u4: - a1 + a2 - a3 - a4 - a5 + a6 - a7 - a8 >= -5
 c185_load_low__u4: - a1 + a2 - a3 - a4 - a5 - a6 + a7 + a8 >= -4
 c186_load_low__u4: - a1 + a2 - a3 - a4 - a5 - a6 + a7 - a8 >= -5
 c187_load_low__u4: - a1 + a2 - a3 - a4 - a5 - a6 - a7 + a8 >= -5
 c188_load_low__u4: - a1 + a2 - a3 - a4 - a5 - a6 - a7 - a8 >= -6
 c189_load_low__u4: - a1 - a2 + a3 + a4 + a5 + a6 + a7 + a8 >= -1
 c190_load_low__u4: - a1 - a2 + a3 + a4 + a5 + a6 + a7 - a8 >= -2
 c191_load_low__u4: - a1 - a2 + a3 + a4 + a5 + a6 - a7 + a8 >= -2
 c192_load_low__u4: - a1 - a2 + a3 + a4 + a5 + a6 - a7 - a8 >= -3
 c193_load_low__u4: - a1 - a2 + a3 + a4 + a5 - a6 + a7 + a8 >= -2
 c194_load_low__u4: - a1 - a2 + a3 + a4 + a5 - a6 + a7 - a8 >= -3
 c195_load_low__u4: - a1 - a2 + a3 + a4 + a5 - a6 - a7 + a8 >= -3
 c196_load_low__u4: - a1 - a2 + a3 + a4 + a5 - a6 - a7 - a8 >= -4
 c197_load_low__u4: - a1 - a2 + a3 + a4 - a5 + a6 + a7 + a8 >= -2
 c198_load_low__u4: - a1 - a2 + a3 + a4 - a5 + a6 + a7 - a8 >= -3
 c199_load_low__u4: - a1 - a2 + a3 + a4 - a5 + a6 - a7 + a8 >= -3
 c200_load_low__u4: - a1 - a2 + a3 + a4 - a5 + a6 - a7 - a8 >= -4
 c201_load_low__u4: - a1 - a2 + a3 + a4 - a5 - a6 + a7 + a8 >= -3
 c202_load_low__u4: - a1 - a2 + a3 + a4 - a5 - a6 + a7 - a8 >= -4
 c203_load_low__u4: - a1 - a2 + a3 + a4 - a5 - a6 - a7 + a8 >= -4
 c204_load_low__u4: - a1 - a2 + a3 + a4 - a5 - a6 - a7 - a8 >= -5
 c205_load_low__u4: - a1 - a2 + a3 - a4 + a5 + a6 + a7 + a8 >= -2
 c206_load_low__u4: - a1 - a2 + a3 - a4 + a5 + a6 + a7 - a8 >= -3
 c207_load_low__u4: - a1 - a2 + a3 - a4 + a5 + a6 - a7 + a8 >= -3
 c208_load_low__u4: - a1 - a2 + a3 - a4 + a5 + a6 - a7 - a8 >= -4
 c209_load_low__u4: - a1 - a2 + a3 - a4 + a5 - a6 + a7 + a8 >= -3
 c210_load_low__u4: - a1 - a2 + a3 - a4 + a5 - a6 + a7 - a8 >= -4
 c211_load_low__u4: - a1 - a2 + a3 - a4 + a5 - a6 - a7 + a8 >= -4
 c212_load_low__u4: - a1 - a2 + a3 - a4 + a5 - a6 - a7 - a8 >= -5
 c213_load_low__u4: - a1 - a2 + a3 - a4 - a5 + a6 + a7 + a8 >= -3
 c214_load_low__u4: - a1 - a2 + a3 - a4 - a5 + a6 + a7 - a8 >= -4
 c215_load_low__u4: - a1 - a2 + a3 - a4 - a5 + a6 - a7 + a8 >= -4
 c216_load_low__u4: - a1 - a2 + a3 - a4 - a5 + a6 - a7 - a8 >= -5
 c217_load_low__u4: - a1 - a2 + a3 - a4 - a5 - a6 + a7 + a8 >= -4
 c218_load_low__u4: - a1 - a2 + a3 - a4 - a5 - a6 + a7 - a8 >= -5
 c219_load_low__u4: - a1 - a2 + a3 - a4 - a5 - a6 - a7 + a8 >= -5
 c220_load_low__u4: - a1 - a2 + a3 - a4 - a5 - a6 - a7 - a8 >= -6
 c221_load_low__u4: - a1 - a2 - a3 + a4 + a5 + a6 + a7 + a8 >= -2
 c222_load_low__u4: - a1 - a2 - a3 + a4 + a5 + a6 + a7 - a8 >= -3
 c223_load_low__u4: - a1 - a2 - a3 + a4 + a5 + a6 - a7 + a8 >= -3
 c224_load_low__u4: - a1 - a2 - a3 + a4 + a5 + a6 - a7 - a8 >= -4
 c225_load_low__u4: - a1 - a2 - a3 + a4 + a5 - a6 + a7 + a8 >= -3
 c226_load_low__u4: - a1 - a2 - a3 + a4 + a5 - a6 + a7 - a8 >= -4
 c227_load_low__u4: - a1 - a2 - a3 + a4 + a5 - a6 - a7 + a8 >= -4
 c228_load_low__u4: - a1 - a2 - a3 + a4 + a5 - a6 - a7 - a8 >= -5
 c229_load_low__u4: - a1 - a2 - a3 + a4 - a5 + a6 + a7 + a8 >= -3
 c230_load_low__u4: - a1 - a2 - a3 + a4 - a5 + a6 + a7 - a8 >= -4
 c231_load_low__u4: - a1 - a2 - a3 + a4 - a5 + a6 - a7 + a8 >= -4
 c232_load_low__u4: - a1 - a2 - a3 + a4 - a5 + a6 - a7 - a8 >= -5
 c233_load_low__u4: - a1 - a2 - a3 + a4 - a5 - a6 + a7 + a8 >= -4
 c234_load_low__u4: - a1 - a2 - a3 + a4 - a5 - a6 + a7 - a8 >= -5
 c235_load_low__u4: - a1 - a2 - a3 + a4 - a5 - a6 - a7 + a8 >= -5
 c236_load_low__u4: - a1 - a2 - a3 + a4 - a5 - a6 - a7 - a8 >= -6
 c237_load_low__u4: - a1 - a2 - a3 - a4 + a5 + a6 + a7 + a8 >= -3
 c238_load_low__u4: - a1 - a2 - a3 - a4 + a5 + a6 + a7 - a8 >= -4
 c239_load_low__u4: - a1 - a2 - a3 - a4 + a5 + a6 - a7 + a8 >= -4
 c240_load_low__u4: - a1 - a2 - a3 - a4 + a5 + a6 - a7 - a8 >= -5
 c241_load_low__u4: - a1 - a2 - a3 - a4 + a5 - a6 + a7 + a8 >= -4
 c242_load_low__u4: - a1 - a2 - a3 - a4 + a5 - a6 + a7 - a8 >= -5
 c243_load_low__u4: - a1 - a2 - a3 - a4 + a5 - a6 - a7 + a8 >= -5
 c244_load_low__u4: - a1 - a2 - a3 - a4 + a5 - a6 - a7 - a8 >= -6
 c245_load_low__u4: - a1 - a2 - a3 - a4 - a5 + a6 + a7 + a8 >= -4
 c246_load_low__u4: - a1 - a2 - a3 - a4 - a5 + a6 + a7 - a8 >= -5
 c247_load_low__u4: - a1 - a2 - a3 - a4 - a5 + a6 - a7 + a8 >= -5
 c248_load_low__u4: - a1 - a2 - a3 - a4 - a5 + a6 - a7 - a8 >= -6
 c249_load_low__u4: - a1 - a2 - a3 - a4 - a5 - a6 + a7 + a8 >= -5
 c250_load_low__u4: - a1 - a2 - a3 - a4 - a5 - a6 + a7 - a8 >= -6
 c251_load_low__u4: - a1 - a2 - a3 - a4 - a5 - a6 - a7 + a8 >= -6
 c252_load_low__u4: - a1 - a2 - a3 - a4 - a5 - a6 - a7 - a8 >= -7
 c253_load_high__u4: a1 + a2 + a3 + a4 + a5 + a6 + a7 + a8 >= 1
 c254_load_high__u4: a1 + a2 + a3 + a4 + a5 + a6 + a7 - a8 >= 0
 c255_load_high__u4: a1 + a2 + a3 + a4 + a5 + a6 - a7 + a8 >= 0
 c256_load_high__u4: a1 + a2 + a3 + a4 + a5 + a6 - a7 - a8 >= -1
 c257_load_high__u4: a1 + a2 + a3 + a4 + a5 - a6 + a7 + a8 >= 0
 c258_load_high__u4: a1 + a2 + a3 + a4 + a5 - a6 + a7 - a8 >= -1
 c259_load_high__u4: a1 + a2 + a3 + a4 + a5 - a6 - a7 + a8 >= -1
 c260_load_high__u4: a1 + a2 + a3 + a4 + a5 - a6 - a7 - a8 >= -2
 c261_load_high__u4: a1 + a2 + a3 + a4 - a5 + a6 + a7 + a8 >= 0
 c262_load_high__u4: a1 + a2 + a3 + a4 - a5 + a6 + a7 - a8 >= -1
 c263_load_high__u4: a1 + a2 + a3 + a4 - a5 + a6 - a7 + a8 >= -1
 c264_load_high__u4: a1 + a2 + a3 + a4 - a5 + a6 - a7 - a8 >= -2
 c265_load_high__u4: a1 + a2 + a3 + a4 - a5 - a6 + a7 + a8 >= -1
 c266_load_high__u4: a1 + a2 + a3 + a4 - a5 - a6 + a7 - a8 >= -2
 c267_load_high__u4: a1 + a2 + a3 + a4 - a5 - a6 - a7 + a8 >= -2
 c268_load_high__u4: a1 + a2 + a3 + a4 - a5 - a6 - a7 - a8 >= -3
 c269_load_high__u4: a1 + a2 + a3 - a4 + a5 + a6 + a7 + a8 >= 0
 c270_load_high__u4: a1 + a2 + a3 - a4 + a5 + a6 + a7 - a8 >= -1
 c271_load_high__u4: a1 + a2 + a3 - a4 + a5 + a6 - a7 + a8 >= -1
 c272_load_high__u4: a1 + a2 + a3 - a4 + a5 + a6 - a7 - a8 >= -2
 c273_load_high__u4: a1 + a2 + a3 - a4 + a5 - a6 + a7 + a8 >= -1
 c274_load_high__u4: a1 + a2 + a3 - a4 + a5 - a6 + a7 - a8 >= -2
 c275_load_high__u4: a1 + a2 + a3 - a4 + a5 - a6 - a7 + a8 >= -2
 c276_load_high__u4: a1 + a2 + a3 - a4 + a5 - a6 - a7 - a8 >= -3
 c277_load_high__u4: a1 + a2 + a3 - a4 - a5 + a6 + a7 + a8 >= -1
 c278_load_high__u4: a1 + a2 + a3 - a4 - a5 + a6 + a7 - a8 >= -2
 c279_load_high__u4: a1 + a2 + a3 - a4 - a5 + a6 - a7 + a8 >= -2
 c280_load_high__u4: a1 + a2 + a3 - a4 - a5 + a6 - a7 - a8 >= -3
 c281_load_high__u4: a1 + a2 + a3 - a4 - a5 - a6 + a7 + a8 >= -2
 c282_load_high__u4: a1 + a2 + a3 - a4 - a5 - a6 + a7 - a8 >= -3
 c283_load_high__u4: a1 + a2 + a3 - a4 - a5 - a6 - a7 + a8 >= -3
 c284_load_high__u4: a1 + a2 + a3 - a4 - a5 - a6 - a7 - a8 >= -4
 c285_load_high__u4: a1 + a2 - a3 + a4 + a5 + a6 + a7 + a8 >= 0
 c286_load_high__u4: a1 + a2 - a3 + a4 + a5 + a6 - a7 - a8 >= -2
 c287_load_high__u4: a1 + a2 - a3 + a4 + a5 - a6 + a7 - a8 >= -2
 c288_load_high__u4: a1 + a2 - a3 + a4 + a5 - a6 - a7 + a8 >= -2
 c289_load_high__u4: a1 + a2 - a3 + a4 + a5 - a6 - a7 - a8 >= -3
 c290_load_high__u4: a1 + a2 - a3 + a4 - a5 + a6 + a7 - a8 >= -2
 c291_load_high__u4: a1 + a2 - a3 + a4 - a5 + a6 - a7 + a8 >= -2
 c292_load_high__u4: a1 + a2 - a3 + a4 - a5 + a6 - a7 - a8 >= -3
 c293_load_high__u4: a1 + a2 - a3 + a4 - a5 - a6 + a7 + a8 >= -2
 c294_load_high__u4: a1 + a2 - a3 + a4 - a5 - a6 + a7 - a8 >= -3
 c295_load_high__u4: a1 + a2 - a3 + a4 - a5 - a6 - a7 + a8 >= -3
 c296_load_high__u4: a1 + a2 - a3 + a4 - a5 - a6 - a7 - a8 >= -4
 c297_load_high__u4: a1 + a2 - a3 - a4 + a5 + a6 + a7 - a8 >= -2
 c298_load_high__u4: a1 + a2 - a3 - a4 + a5 + a6 - a7 + a8 >= -2
 c299_load_high__u4: a1 + a2 - a3 - a4 + a5 + a6 - a7 - a8 >= -3
 c300_load_high__u4: a1 + a2 - a3 - a4 + a5 - a6 + a7 + a8 >= -2
 c301_load_high__u4: a1 + a2 - a3 - a4 + a5 - a6 + a7 - a8 >= -3
 c302_load_high__u4: a1 + a2 - a3 - a4 + a5 - a6 - a7 + a8 >= -3
 c303_load_high__u4: a1 + a2 - a3 - a4 + a5 - a6 - a7 - a8 >= -4
 c304_load_high__u4: a1 + a2 - a3 - a4 - a5 + a6 + a7 + a8 >= -2
 c305_load_high__u4: a1 + a2 - a3 - a4 - a5 + a6 + a7 - a8 >= -3
 c306_load_high__u4: a1 + a2 - a3 - a4 - a5 + a6 - a7 + a8 >= -3
 c307_load_high__u4: a1 + a2 - a3 - a4 - a5 + a6 - a7 - a8 >= -4
 c308_load_high__u4: a1 + a2 - a3 - a4 - a5 - a6 + a7 + a8 >= -3
 c309_load_high__u4: a1 + a2 - a3 - a4 - a5 - a6 + a7 - a8 >= -4
 c310_load_high__u4: a1 + a2 - a3 - a4 - a5 - a6 - a7 + a8 >= -4
 c311_load_high__u4: a1 + a2 - a3 - a4 - a5 - a6 - a7 - a8 >= -5
 c312_load_high__u4: a1 - a2 + a3 + a4 + a5 + a6 + a7 + a8 >= 0
 c313_load_high__u4: a1 - a2 + a3 + a4 + a5 + a6 - a7 - a8 >= -2
 c314_load_high__u4: a1 - a2 + a3 + a4 + a5 - a6 + a7 - a8 >= -2
 c315_load_high__u4: a1 - a2 + a3 + a4 + a5 - a6 - a7 + a8 >= -2
 c316_load_high__u4: a1 - a2 + a3 + a4 + a5 - a6 - a7 - a8 >= -3
 c317_load_high__u4: a1 - a2 + a3 + a4 - a5 + a6 + a7 - a8 >= -2
 c318_load_high__u4: a1 - a2 + a3 + a4 - a5 + a6 - a7 + a8 >= -2
 c319_load_high__u4: a1 - a2 + a3 + a4 - a5 + a6 - a7 - a8 >= -3
 c320_load_high__u4: a1 - a2 + a3 + a4 - a5 - a6 + a7 + a8 >= -2
 c321_load_high__u4: a1 - a2 + a3 + a4 - a5 - a6 + a7 - a8 >= -3
 c322_load_high__u4: a1 - a2 + a3 + a4 - a5 - a6 - a7 + a8 >= -3
 c323_load_high__u4: a1 - a2 + a3 + a4 - a5 - a6 - a7 - a8 >= -4
 c324_load_high__u4: a1 - a2 + a3 - a4 + a5 + a6 + a7 - a8 >= -2
 c325_load_high__u4: a1 - a2 + a3 - a4 + a5 + a6 - a7 + a8 >= -2
 c326_load_high__u4: a1 - a2 + a3 - a4 + a5 + a6 - a7 - a8 >= -3
 c327_load_high__u4: a1 - a2 + a3 - a4 + a5 - a6 + a7 + a8 >= -2
 c328_load_high__u4: a1 - a2 + a3 - a4 + a5 - a6 + a7 - a8 >= -3
 c329_load_high__u4: a1 - a2 + a3 - a4 + a5 - a6 - a7 + a8 >= -3
 c330_load_high__u4: a1 - a2 + a3 - a4 + a5 - a6 - a7 - a8 >= -4
 c331_load_high__u4: a1 - a2 + a3 - a4 - a5 + a6 + a7 + a8 >= -2
 c332_load_high__u4: a1 - a2 + a3 - a4 - a5 + a6 + a7 - a8 >= -3
 c333_load_high__u4: a1 - a2 + a3 - a4 - a5 + a6 - a7 + a8 >= -3
 c334_load_high__u4: a1 - a2 + a3 - a4 - a5 + a6 - a7 - a8 >= -4
 c335_load_high__u4: a1 - a2 + a3 - a4 - a5 - a6 + a7 + a8 >= -3
 c336_load_high__u4: a1 - a2 + a3 - a4 - a5 - a6 + a7 - a8 >= -4
 c337_load_high__u4: a1 - a2 + a3 - a4 - a5 - a6 - a7 + a8 >= -4
 c338_load_high__u4: a1 - a2 + a3 - a4 - a5 - a6 - a7 - a8 >= -5
 c339_load_high__u4: a1 - a2 - a3 + a4 + a5 + a6 + a7 - a8 >= -2
 c340_load_high__u4: a1 - a2 - a3 + a4 + a5 + a6 - a7 + a8 >= -2
 c341_load_high__u4: a1 - a2 - a3 + a4 + a5 + a6 - a7 - a8 >= -3
 c342_load_high__u4: a1 - a2 - a3 + a4 + a5 - a6 + a7 + a8 >= -2
 c343_load_high__u4: a1 - a2 - a3 + a4 + a5 - a6 + a7 - a8 >= -3
 c344_load_high__u4: a1 - a2 - a3 + a4 + a5 - a6 - a7 + a8 >= -3
 c345_load_high__u4: a1 - a2 - a3 + a4 + a5 - a6 - a7 - a8 >= -4
 c346_load_high__u4: a1 - a2 - a3 + a4 - a5 + a6 + a7 + a8 >= -2
 c347_load_high__u4: a1 - a2 - a3 + a4 - a5 + a6 + a7 - a8 >= -3
 c348_load_high__u4: a1 - a2 - a3 + a4 - a5 + a6 - a7 + a8 >= -3
 c349_load_high__u4: a1 - a2 - a3 + a4 - a5 + a6 - a7 - a8 >= -4
 c350_load_high__u4: a1 - a2 - a3 + a4 - a5 - a6 + a7 + a8 >= -3
 c351_load_high__u4: a1 - a2 - a3 + a4 - a5 - a6 + a7 - a8 >= -4
 c352_load_high__u4: a1 - a2 - a3 + a4 - a5 - a6 - a7 + a8 >= -4
 c353_load_high__u4: a1 - a2 - a3 + a4 - a5 - a6 - a7 - a8 >= -5
 c354_load_high__u4: a1 - a2 - a3 - a4 + a5 + a6 + a7 + a8 >= -2
 c355_load_high__u4: a1 - a2 - a3 - a4 + a5 + a6 + a7 - a8 >= -3
 c356_load_high__u4: a1 - a2 - a3 - a4 + a5 + a6 - a7 + a8 >= -3
 c357_load_high__u4: a1 - a2 - a3 - a4 + a5 + a6 - a7 - a8 >= -4
 c358_load_high__u4: a1 - a2 - a3 - a4 + a5 - a6 + a7 + a8 >= -3
 c359_load_high__u4: a1 - a2 - a3 - a4 + a5 - a6 + a7 - a8 >= -4
 c360_load_high__u4: a1 - a2 - a3 - a4 + a5 - a6 - a7 + a8 >= -4
 c361_load_high__u4: a1 - a2 - a3 - a4 + a5 - a6 - a7 - a8 >= -5
 c362_load_high__u4: a1 - a2 - a3 - a4 - a5 + a6 + a7 + a8 >= -3
 c363_load_high__u4: a1 - a2 - a3 - a4 - a5 + a6 + a7 - a8 >= -4
 c364_load_high__u4: a1 - a2 - a3 - a4 - a5 + a6 - a7 + a8 >= -4
 c365_load_high__u4: a1 - a2 - a3 - a4 - a5 + a6 - a7 - a8 >= -5
 c366_load_high__u4: a1 - a2 - a3 - a4 - a5 - a6 + a7 + a8 >= -4
 c367_load_high__u4: a1 - a2 - a3 - a4 - a5 - a6 + a7 - a8 >= -5
 c368_load_high__u4: a1 - a2 - a3 - a4 - a5 - a6 - a7 + a8 >= -5
 c369_load_high__u4: a1 - a2 - a3 - a4 - a5 - a6 - a7 - a8 >= -6
 c370_load_high__u4: - a1 + a2 + a3 + a4 + a5 + a6 + a7 + a8 >= 0
 c371_load_high__u4: - a1 + a2 + a3 + a4 + a5 + a6 - a7 - a8 >= -2
 c372_load_high__u4: - a1 + a2 + a3 + a4 + a5 - a6 + a7 - a8 >= -2
 c373_load_high__u4: - a1 + a2 + a3 + a4 + a5 - a6 - a7 + a8 >= -2
 c374_load_high__u4: - a1 + a2 + a3 + a4 + a5 - a6 - a7 - a8 >= -3
 c375_load_high__u4: - a1 + a2 + a3 + a4 - a5 + a6 + a7 - a8 >= -2
 c376_load_high__u4: - a1 + a2 + a3 + a4 - a5 + a6 - a7 + a8 >= -2
 c377_load_high__u4: - a1 + a2 + a3 + a4 - a5 + a6 - a7 - a8 >= -3
 c378_load_high__u4: - a1 + a2 + a3 + a4 - a5 - a6 + a7 + a8 >= -2
 c379_load_high__u4: - a1 + a2 + a3 + a4 - a5 - a6 + a7 - a8 >= -3
 c380_load_high__u4: - a1 + a2 + a3 + a4 - a5 - a6 - a7 + a8 >= -3
 c381_load_high__u4: - a1 + a2 + a3 + a4 - a5 - a6 - a7 - a8 >= -4
 c382_load_high__u4: - a1 + a2 + a3 - a4 + a5 + a6 + a7 - a8 >= -2
 c383_load_high__u4: - a1 + a2 + a3 - a4 + a5 + a6 - a7 + a8 >= -2
 c384_load_high__u4: - a1 + a2 + a3 - a4 + a5 + a6 - a7 - a8 >= -3
 c385_load_high__u4: - a1 + a2 + a3 - a4 + a5 - a6 + a7 + a8 >= -2
 c386_load_high__u4: - a1 + a2 + a3 - a4 + a5 - a6 + a7 - a8 >= -3
 c387_load_high__u4: - a1 + a2 + a3 - a4 + a5 - a6 - a7 + a8 >= -3
 c388_load_high__u4: - a1 + a2 + a3 - a4 + a5 - a6 - a7 - a8 >= -4
 c389_load_high__u4: - a1 + a2 + a3 - a4 - a5 + a6 + a7 + a8 >= -2
 c390_load_high__u4: - a1 + a2 + a3 - a4 - a5 + a6 + a7 - a8 >= -3
 c391_load_high__u4: - a1 + a2 + a3 - a4 - a5 + a6 - a7 + a8 >= -3
 c392_load_high__u4: - a1 + a2 + a3 - a4 - a5 + a6 - a7 - a8 >= -4
 c393_load_high__u4: - a1 + a2 + a3 - a4 - a5 - a6 + a7 + a8 >= -3
 c394_load_high__u4: - a1 + a2 + a3 - a4 - a5 - a6 + a7 - a8 >= -4
 c395_load_high__u4: - a1 + a2 + a3 - a4 - a5 - a6 - a7 + a8 >= -4
 c396_load_high__u4: - a1 + a2 + a3 - a4 - a5 - a6 - a7 - a8 >= -5
 c397_load_high__u4: - a1 + a2 - a3 + a4 + a5 + a6 + a7 + a8 >= -1
 c398_load_high__u4: - a1 + a2 - a3 + a4 + a5 + a6 + a7 - a8 >= -2
 c399_load_high__u4: - a1 + a2 - a3 + a4 + a5 + a6 - a7 + a8 >= -2
 c400_load_high__u4: - a1 + a2 - a3 + a4 + a5 + a6 - a7 - a8 >= -3
 c401_load_high__u4: - a1 + a2 - a3 + a4 + a5 - a6 + a7 + a8 >= -2
 c402_load_high__u4: - a1 + a2 - a3 + a4 + a5 - a6 + a7 - a8 >= -3
 c403_load_high__u4: - a1 + a2 - a3 + a4 + a5 - a6 - a7 + a8 >= -3
 c404_load_high__u4: - a1 + a2 - a3 + a4 + a5 - a6 - a7 - a8 >= -4
 c405_load_high__u4: - a1 + a2 - a3 + a4 - a5 + a6 + a7 + a8 >= -2
 c406_load_high__u4: - a1 + a2 - a3 + a4 - a5 + a6 + a7 - a8 >= -3
 c407_load_high__u4: - a1 + a2 - a3 + a4 - a5 + a6 - a7 + a8 >= -3
 c408_load_high__u4: - a1 + a2 - a3 + a4 - a5 + a6 - a7 - a8 >= -4
 c409_load_high__u4: - a1 + a2 - a3 + a4 - a5 - a6 + a7 + a8 >= -3
 c410_load_high__u4: - a1 + a2 - a3 + a4 - a5 - a6 + a7 - a8 >= -4
 c411_load_high__u4: - a1 + a2 - a3 + a4 - a5 - a6 - a7 + a8 >= -4
 c412_load_high__u4: - a1 + a2 - a3 + a4 - a5 - a6 - a7 - a8 >= -5
 c413_load_high__u4: - a1 + a2 - a3 - a4 + a5 + a6 + a7 + a8 >= -2
 c414_load_high__u4: - a1 + a2 - a3 - a4 + a5 + a6 + a7 - a8 >= -3
 c415_load_high__u4: - a1 + a2 - a3 - a4 + a5 + a6 - a7 + a8 >= -3
 c416_load_high__u4: - a1 + a2 - a3 - a4 + a5 + a6 - a7 - a8 >= -4
 c417_load_high__u4: - a1 + a2 - a3 - a4 + a5 - a6 + a7 + a8 >= -3
 c418_load_high__u4: - a1 + a2 - a3 - a4 + a5 - a6 + a7 - a8 >= -4
 c419_load_high__u4: - a1 + a2 - a3 - a4 + a5 - a6 - a7 + a8 >= -4
 c420_load_high__u4: - a1 + a2 - a3 - a4 + a5 - a6 - a7 - a8 >= -5
 c421_load_high__u4: - a1 + a2 - a3 - a4 - a5 + a6 + a7 + a8 >= -3
 c422_load_high__u4: - a1 + a2 - a3 - a4 - a5 + a6 + a7 - a8 >= -4
 c423_load_high__u4: - a1 + a2 - a3 - a4 - a5 + a6 - a7 + a8 >= -4
 c424_load_high__u4: - a1 + a2 - a3 - a4 - a5 + a6 - a7 - a8 >= -5
 c425_load_high__u4: - a1 + a2 - a3 - a4 - a5 - a6 + a7 + a8 >= -4
 c426_load_high__u4: - a1 + a2 - a3 - a4 - a5 - a6 + a7 - a8 >= -5
 c427_load_high__u4: - a1 + a2 - a3 - a4 - a5 - a6 - a7 + a8 >= -5
 c428_load_high__u4: - a1 + a2 - a3 - a4 - a5 - a6 - a7 - a8 >= -6
 c429_load_high__u4: - a1 - a2 + a3 + a4 + a5 + a6 + a7 + a8 >= -1
 c430_load_high__u4: - a1 - a2 + a3 + a4 + a5 + a6 - a7 - a8 >= -3
 c431_load_high__u4: - a1 - a2 + a3 + a4 + a5 - a6 + a7 - a8 >= -3
 c432_load_high__u4: - a1 - a2 + a3 + a4 + a5 - a6 - a7 + a8 >= -3
 c433_load_high__u4: - a1 - a2 + a3 + a4 + a5 - a6 - a7 - a8 >= -4
 c434_load_high__u4: - a1 - a2 + a3 + a4 - a5 + a6 + a7 - a8 >= -3
 c435_load_high__u4: - a1 - a2 + a3 + a4 - a5 + a6 - a7 + a8 >= -3
 c436_load_high__u4: - a1 - a2 + a3 + a4 - a5 + a6 - a7 - a8 >= -4
 c437_load_high__u4: - a1 - a2 + a3 + a4 - a5 - a6 + a7 + a8 >= -3
 c438_load_high__u4: - a1 - a2 + a3 + a4 - a5 - a6 + a7 - a8 >= -4
 c439_load_high__u4: - a1 - a2 + a3 + a4 - a5 - a6 - a7 + a8 >= -4
 c440_load_high__u4: - a1 - a2 + a3 + a4 - a5 - a6 - a7 - a8 >= -5
 c441_load_high__u4: - a1 - a2 + a3 - a4 + a5 + a6 + a7 - a8 >= -3
 c442_load_high__u4: - a1 - a2 + a3 - a4 + a5 + a6 - a7 + a8 >= -3
 c443_load_high__u4: - a1 - a2 + a3 - a4 + a5 + a6 - a7 - a8 >= -4
 c444_load_high__u4: - a1 - a2 + a3 - a4 + a5 - a6 + a7 + a8 >= -3
 c445_load_high__u4: - a1 - a2 + a3 - a4 + a5 - a6 + a7 - a8 >= -4
 c446_load_high__u4: - a1 - a2 + a3 - a4 + a5 - a6 - a7 + a8 >= -4
 c447_load_high__u4: - a1 - a2 + a3 - a4 + a5 - a6 - a7 - a8 >= -5
 c448_load_high__u4: - a1 - a2 + a3 - a4 - a5 + a6 + a7 + a8 >= -3
 c449_load_high__u4: - a1 - a2 + a3 - a4 - a5 + a6 + a7 - a8 >= -4
 c450_load_high__u4: - a1 - a2 + a3 - a4 - a5 + a6 - a7 + a8 >= -4
 c451_load_high__u4: - a1 - a2 + a3 - a4 - a5 + a6 - a7 - a8 >= -5
 c452_load_high__u4: - a1 - a2 + a3 - a4 - a5 - a6 + a7 + a8 >= -4
 c453_load_high__u4: - a1 - a2 + a3 - a4 - a5 - a6 + a7 - a8 >= -5
 c454_load_high__u4: - a1 - a2 + a3 - a4 - a5 - a6 - a7 + a8 >= -5
 c455_load_high__u4: - a1 - a2 + a3 - a4 - a5 - a6 - a7 - a8 >= -6
 c456_load_high__u4: - a1 - a2 - a3 + a4 + a5 + a6 + a7 - a8 >= -3
 c457_load_high__u4: - a1 - a2 - a3 + a4 + a5 + a6 - a7 + a8 >= -3
 c458_load_high__u4: - a1 - a2 - a3 + a4 + a5 + a6 - a7 - a8 >= -4
 c459_load_high__u4: - a1 - a2 - a3 + a4 + a5 - a6 + a7 + a8 >= -3
 c460_load_high__u4: - a1 - a2 - a3 + a4 + a5 - a6 + a7 - a8 >= -4
 c461_load_high__u4: - a1 - a2 - a3 + a4 + a5 - a6 - a7 + a8 >= -4
 c462_load_high__u4: - a1 - a2 - a3 + a4 + a5 - a6 - a7 - a8 >= -5
 c463_load_high__u4: - a1 - a2 - a3 + a4 - a5 + a6 + a7 + a8 >= -3
 c464_load_high__u4: - a1 - a2 - a3 + a4 - a5 + a6 + a7 - a8 >= -4
 c465_load_high__u4: - a1 - a2 - a3 + a4 - a5 + a6 - a7 + a8 >= -4
 c466_load_high__u4: - a1 - a2 - a3 + a4 - a5 + a6 - a7 - a8 >= -5
 c467_load_high__u4: - a1 - a2 - a3 + a4 - a5 - a6 + a7 + a8 >= -4
 c468_load_high__u4: - a1 - a2 - a3 + a4 - a5 - a6 + a7 - a8 >= -5
 c469_load_high__u4: - a1 - a2 - a3 + a4 - a5 - a6 - a7 + a8 >= -5
 c470_load_high__u4: - a1 - a2 - a3 + a4 - a5 - a6 - a7 - a8 >= -6
 c471_load_high__u4: - a1 - a2 - a3 - a4 + a5 + a6 + a7 + a8 >= -3
 c472_load_high__u4: - a1 - a2 - a3 - a4 + a5 + a6 + a7 - a8 >= -4
 c473_load_high__u4: - a1 - a2 - a3 - a4 + a5 + a6 - a7 + a8 >= -4
 c474_load_high__u4: - a1 - a2 - a3 - a4 + a5 + a6 - a7 - a8 >= -5
 c475_load_high__u4: - a1 - a2 - a3 - a4 + a5 - a6 + a7 + a8 >= -4
 c476_load_high__u4: - a1 - a2 - a3 - a4 + a5 - a6 + a7 - a8 >= -5
 c477_load_high__u4: - a1 - a2 - a3 - a4 + a5 - a6 - a7 + a8 >= -5
 c478_load_high__u4: - a1 - a2 - a3 - a4 + a5 - a6 - a7 - a8 >= -6
 c479_load_high__u4: - a1 - a2 - a3 - a4 - a5 + a6 + a7 + a8 >= -4
 c480_load_high__u4: - a1 - a2 - a3 - a4 - a5 + a6 + a7 - a8 >= -5
 c481_load_high__u4: - a1 - a2 - a3 - a4 - a5 + a6 - a7 + a8 >= -5
 c482_load_high__u4: - a1 - a2 - a3 - a4 - a5 + a6 - a7 - a8 >= -6
 c483_load_high__u4: - a1 - a2 - a3 - a4 - a5 - a6 + a7 + a8 >= -5
 c484_load_high__u4: - a1 - a2 - a3 - a4 - a5 - a6 + a7 - a8 >= -6
 c485_load_high__u4: - a1 - a2 - a3 - a4 - a5 - a6 - a7 + a8 >= -6
 c486_load_high__u4: - a1 - a2 - a3 - a4 - a5 - a6 - a7 - a8 >= -7
Binary
 a1
 a2
 a3
 a4
 a5
 a6
 a7
 a8
End
