\ Boolean forbidden-tuple encoding
Minimize
 obj: 0
Subject To
 c0_neq0_1: x0 + x1 >= 1
 c1_neq0_1: - x0 - x1 >= -1
 c2_neq1_2: x1 + x2 >= 1
 c3_neq1_2: - x1 - x2 >= -1
 c4_neq2_3: x2 + x3 >= 1
 c5_neq2_3: - x2 - x3 >= -1
 c6_neq3_4: x3 + x4 >= 1
 c7_neq3_4: - x3 - x4 >= -1
 c8_neq4_5: x4 + x5 >= 1
 c9_neq4_5: - x4 - x5 >= -1
 c10_neq5_6: x5 + x6 >= 1
 c11_neq5_6: - x5 - x6 >= -1
 c12_neq6_7: x6 + x7 >= 1
 c13_neq6_7: - x6 - x7 >= -1
 c14_neq7_8: x7 + x8 >= 1
 c15_neq7_8: - x7 - x8 >= -1
 c16_neq8_9: x8 + x9 >= 1
 c17_neq8_9: - x8 - x9 >= -1
 c18_neq9_10: x9 + x10 >= 1
 c19_neq9_10: - x9 - x10 >= -1
 c20_neq10_11: x10 + x11 >= 1
 c21_neq10_11: - x10 - x11 >= -1
 c22_neq11_12: x11 + x12 >= 1
 c23_neq11_12: - x11 - x12 >= -1
 c24_neq12_13: x12 + x13 >= 1
 c25_neq12_13: - x12 - x13 >= -1
 c26_neq13_14: x13 + x14 >= 1
 c27_neq13_14: - x13 - x14 >= -1
 c28_neq14_15: x14 + x15 >= 1
 c29_neq14_15: - x14 - x15 >= -1
 c30_neq15_16: x15 + x16 >= 1
 c31_neq15_16: - x15 - x16 >= -1
 c32_neq16_17: x16 + x17 >= 1
 c33_neq16_17: - x16 - x17 >= -1
 c34_neq17_18: x17 + x18 >= 1
 c35_neq17_18: - x17 - x18 >= -1
 c36_neq18_19: x18 + x19 >= 1
 c37_neq18_19: - x18 - x19 >= -1
 c38_neq19_20: x19 + x20 >= 1
 c39_neq19_20: - x19 - x20 >= -1
 c40_neq20_21: x20 + x21 >= 1
 c41_neq20_21: - x20 - x21 >= -1
 c42_neq21_22: x21 + x22 >= 1
 c43_neq21_22: - x21 - x22 >= -1
 c44_neq22_23: x22 + x23 >= 1
 c45_neq22_23: - x22 - x23 >= -1
 c46_neq23_24: x23 + x24 >= 1
 c47_neq23_24: - x23 - x24 >= -1
 c48_neq24_25: x24 + x25 >= 1
 c49_neq24_25: - x24 - x25 >= -1
 c50_neq25_26: x25 + x26 >= 1
 c51_neq25_26: - x25 - x26 >= -1
 c52_neq26_27: x26 + x27 >= 1
 c53_neq26_27: - x26 - x27 >= -1
 c54_neq27_28: x27 + x28 >= 1
 c55_neq27_28: - x27 - x28 >= -1
 c56_neq28_29: x28 + x29 >= 1
 c57_neq28_29: - x28 - x29 >= -1
 c58_neq29_30: x29 + x30 >= 1
 c59_neq29_30: - x29 - x30 >= -1
 c60_neq30_31: x30 + x31 >= 1
 c61_neq30_31: - x30 - x31 >= -1
 c62_neq31_32: x31 + x32 >= 1
 c63_neq31_32: - x31 - x32 >= -1
 c64_neq32_33: x32 + x33 >= 1
 c65_neq32_33: - x32 - x33 >= -1
 c66_neq33_34: x33 + x34 >= 1
 c67_neq33_34: - x33 - x34 >= -1
 c68_neq34_35: x34 + x35 >= 1
 c69_neq34_35: - x34 - x35 >= -1
 c70_neq35_36: x35 + x36 >= 1
 c71_neq35_36: - x35 - x36 >= -1
 c72_neq36_37: x36 + x37 >= 1
 c73_neq36_37: - x36 - x37 >= -1
 c74_neq37_38: x37 + x38 >= 1
 c75_neq37_38: - x37 - x38 >= -1
 c76_neq38_39: x38 + x39 >= 1
 c77_neq38_39: - x38 - x39 >= -1
 c78_neq39_40: x39 + x40 >= 1
 c79_neq39_40: - x39 - x40 >= -1
 c80_neq40_41: x40 + x41 >= 1
 c81_neq40_41: - x40 - x41 >= -1
 c82_neq41_42: x41 + x42 >= 1
 c83_neq41_42: - x41 - x42 >= -1
 c84_neq42_43: x42 + x43 >= 1
 c85_neq42_43: - x42 - x43 >= -1
 c86_neq43_44: x43 + x44 >= 1
 c87_neq43_44: - x43 - x44 >= -1
 c88_neq44_45: x44 + x45 >= 1
 c89_neq44_45: - x44 - x45 >= -1
 c90_neq45_46: x45 + x46 >= 1
 c91_neq45_46: - x45 - x46 >= -1
 c92_neq46_47: x46 + x47 >= 1
 c93_neq46_47: - x46 - x47 >= -1
 c94_neq47_48: x47 + x48 >= 1
 c95_neq47_48: - x47 - x48 >= -1
 c96_neq48_49: x48 + x49 >= 1
 c97_neq48_49: - x48 - x49 >= -1
 c98_neq49_50: x49 + x50 >= 1
 c99_neq49_50: - x49 - x50 >= -1
 c100_neq50_51: x50 + x51 >= 1
 c101_neq50_51: - x50 - x51 >= -1
 c102_neq51_52: x51 + x52 >= 1
 c103_neq51_52: - x51 - x52 >= -1
 c104_neq52_53: x52 + x53 >= 1
 c105_neq52_53: - x52 - x53 >= -1
 c106_neq53_54: x53 + x54 >= 1
 c107_neq53_54: - x53 - x54 >= -1
 c108_neq54_55: x54 + x55 >= 1
 c109_neq54_55: - x54 - x55 >= -1
 c110_neq55_56: x55 + x56 >= 1
 c111_neq55_56: - x55 - x56 >= -1
 c112_neq56_57: x56 + x57 >= 1
 c113_neq56_57: - x56 - x57 >= -1
 c114_neq57_58: x57 + x58 >= 1
 c115_neq57_58: - x57 - x58 >= -1
 c116_neq58_59: x58 + x59 >= 1
 c117_neq58_59: - x58 - x59 >= -1
 c118_neq59_60: x59 + x60 >= 1
 c119_neq59_60: - x59 - x60 >= -1
 c120_neq60_61: x60 + x61 >= 1
 c121_neq60_61: - x60 - x61 >= -1
 c122_neq61_62: x61 + x62 >= 1
 c123_neq61_62: - x61 - x62 >= -1
 c124_neq62_63: x62 + x63 >= 1
 c125_neq62_63: - x62 - x63 >= -1
 c126_neq63_64: x63 + x64 >= 1
 c127_neq63_64: - x63 - x64 >= -1
 c128_neq64_65: x64 + x65 >= 1
 c129_neq64_65: - x64 - x65 >= -1
 c130_neq65_66: x65 + x66 >= 1
 c131_neq65_66: - x65 - x66 >= -1
 c132_neq66_67: x66 + x67 >= 1
 c133_neq66_67: - x66 - x67 >= -1
 c134_neq67_68: x67 + x68 >= 1
 c135_neq67_68: - x67 - x68 >= -1
 c136_neq68_69: x68 + x69 >= 1
 c137_neq68_69: - x68 - x69 >= -1
 c138_neq69_70: x69 + x70 >= 1
 c139_neq69_70: - x69 - x70 >= -1
 c140_neq70_71: x70 + x71 >= 1
 c141_neq70_71: - x70 - x71 >= -1
 c142_neq71_72: x71 + x72 >= 1
 c143_neq71_72: - x71 - x72 >= -1
 c144_neq72_73: x72 + x73 >= 1
 c145_neq72_73: - x72 - x73 >= -1
 c146_neq73_74: x73 + x74 >= 1
 c147_neq73_74: - x73 - x74 >= -1
 c148_neq74_75: x74 + x75 >= 1
 c149_neq74_75: - x74 - x75 >= -1
 c150_neq75_76: x75 + x76 >= 1
 c151_neq75_76: - x75 - x76 >= -1
 c152_neq76_77: x76 + x77 >= 1
 c153_neq76_77: - x76 - x77 >= -1
 c154_neq77_78: x77 + x78 >= 1
 c155_neq77_78: - x77 - x78 >= -1
 c156_neq78_79: x78 + x79 >= 1
 c157_neq78_79: - x78 - x79 >= -1
 c158_neq79_80: x79 + x80 >= 1
 c159_neq79_80: - x79 - x80 >= -1
 c160_neq80_81: x80 + x81 >= 1
 c161_neq80_81: - x80 - x81 >= -1
 c162_neq81_82: x81 + x82 >= 1
 c163_neq81_82: - x81 - x82 >= -1
 c164_neq82_83: x82 + x83 >= 1
 c165_neq82_83: - x82 - x83 >= -1
 c166_neq83_84: x83 + x84 >= 1
 c167_neq83_84: - x83 - x84 >= -1
 c168_neq84_85: x84 + x85 >= 1
 c169_neq84_85: - x84 - x85 >= -1
 c170_neq85_86: x85 + x86 >= 1
 c171_neq85_86: - x85 - x86 >= -1
 c172_neq86_87: x86 + x87 >= 1
 c173_neq86_87: - x86 - x87 >= -1
 c174_neq87_88: x87 + x88 >= 1
 c175_neq87_88: - x87 - x88 >= -1
 c176_neq88_89: x88 + x89 >= 1
 c177_neq88_89: - x88 - x89 >= -1
 c178_neq89_90: x89 + x90 >= 1
 c179_neq89_90: - x89 - x90 >= -1
 c180_neq90_91: x90 + x91 >= 1
 c181_neq90_91: - x90 - x91 >= -1
 c182_neq91_92: x91 + x92 >= 1
 c183_neq91_92: - x91 - x92 >= -1
 c184_neq92_93: x92 + x93 >= 1
 c185_neq92_93: - x92 - x93 >= -1
 c186_neq93_94: x93 + x94 >= 1
 c187_neq93_94: - x93 - x94 >= -1
 c188_neq94_95: x94 + x95 >= 1
 c189_neq94_95: - x94 - x95 >= -1
 c190_neq95_96: x95 + x96 >= 1
 c191_neq95_96: - x95 - x96 >= -1
 c192_neq96_97: x96 + x97 >= 1
 c193_neq96_97: - x96 - x97 >= -1
 c194_neq97_98: x97 + x98 >= 1
 c195_neq97_98: - x97 - x98 >= -1
 c196_neq98_99: x98 + x99 >= 1
 c197_neq98_99: - x98 - x99 >= -1
 c198_neq99_100: x99 + x100 >= 1
 c199_neq99_100: - x99 - x100 >= -1
 c200_neq100_101: x100 + x101 >= 1
 c201_neq100_101: - x100 - x101 >= -1
 c202_neq101_102: x101 + x102 >= 1
 c203_neq101_102: - x101 - x102 >= -1
 c204_neq102_103: x102 + x103 >= 1
 c205_neq102_103: - x102 - x103 >= -1
 c206_neq103_104: x103 + x104 >= 1
 c207_neq103_104: - x103 - x104 >= -1
 c208_neq104_105: x104 + x105 >= 1
 c209_neq104_105: - x104 - x105 >= -1
 c210_neq105_106: x105 + x106 >= 1
 c211_neq105_106: - x105 - x106 >= -1
 c212_neq106_107: x106 + x107 >= 1
 c213_neq106_107: - x106 - x107 >= -1
 c214_neq107_108: x107 + x108 >= 1
 c215_neq107_108: - x107 - x108 >= -1
 c216_neq108_109: x108 + x109 >= 1
 c217_neq108_109: - x108 - x109 >= -1
 c218_neq109_110: x109 + x110 >= 1
 c219_neq109_110: - x109 - x110 >= -1
 c220_neq110_111: x110 + x111 >= 1
 c221_neq110_111: - x110 - x111 >= -1
 c222_neq111_112: x111 + x112 >= 1
 c223_neq111_112: - x111 - x112 >= -1
 c224_neq112_113: x112 + x113 >= 1
 c225_neq112_113: - x112 - x113 >= -1
 c226_neq113_114: x113 + x114 >= 1
 c227_neq113_114: - x113 - x114 >= -1
 c228_neq114_115: x114 + x115 >= 1
 c229_neq114_115: - x114 - x115 >= -1
 c230_neq115_116: x115 + x116 >= 1
 c231_neq115_116: - x115 - x116 >= -1
 c232_neq116_117: x116 + x117 >= 1
 c233_neq116_117: - x116 - x117 >= -1
 c234_neq117_118: x117 + x118 >= 1
 c235_neq117_118: - x117 - x118 >= -1
 c236_neq118_119: x118 + x119 >= 1
 c237_neq118_119: - x118 - x119 >= -1
 c238_neq119_120: x119 + x120 >= 1
 c239_neq119_120: - x119 - x120 >= -1
 c240_neq120_121: x120 + x121 >= 1
 c241_neq120_121: - x120 - x121 >= -1
 c242_neq121_122: x121 + x122 >= 1
 c243_neq121_122: - x121 - x122 >= -1
 c244_neq122_123: x122 + x123 >= 1
 c245_neq122_123: - x122 - x123 >= -1
 c246_neq123_124: x123 + x124 >= 1
 c247_neq123_124: - x123 - x124 >= -1
 c248_neq124_125: x124 + x125 >= 1
 c249_neq124_125: - x124 - x125 >= -1
 c250_neq125_126: x125 + x126 >= 1
 c251_neq125_126: - x125 - x126 >= -1
 c252_neq126_127: x126 + x127 >= 1
 c253_neq126_127: - x126 - x127 >= -1
 c254_neq127_128: x127 + x128 >= 1
 c255_neq127_128: - x127 - x128 >= -1
 c256_neq128_129: x128 + x129 >= 1
 c257_neq128_129: - x128 - x129 >= -1
 c258_neq129_130: x129 + x130 >= 1
 c259_neq129_130: - x129 - x130 >= -1
 c260_neq130_131: x130 + x131 >= 1
 c261_neq130_131: - x130 - x131 >= -1
 c262_neq131_132: x131 + x132 >= 1
 c263_neq131_132: - x131 - x132 >= -1
 c264_neq132_133: x132 + x133 >= 1
 c265_neq132_133: - x132 - x133 >= -1
 c266_neq133_134: x133 + x134 >= 1
 c267_neq133_134: - x133 - x134 >= -1
 c268_neq134_135: x134 + x135 >= 1
 c269_neq134_135: - x134 - x135 >= -1
 c270_neq135_136: x135 + x136 >= 1
 c271_neq135_136: - x135 - x136 >= -1
 c272_neq136_137: x136 + x137 >= 1
 c273_neq136_137: - x136 - x137 >= -1
 c274_neq137_138: x137 + x138 >= 1
 c275_neq137_138: - x137 - x138 >= -1
 c276_neq138_139: x138 + x139 >= 1
 c277_neq138_139: - x138 - x139 >= -1
 c278_neq139_140: x139 + x140 >= 1
 c279_neq139_140: - x139 - x140 >= -1
 c280_neq140_141: x140 + x141 >= 1
 c281_neq140_141: - x140 - x141 >= -1
 c282_neq141_142: x141 + x142 >= 1
 c283_neq141_142: - x141 - x142 >= -1
 c284_neq142_143: x142 + x143 >= 1
 c285_neq142_143: - x142 - x143 >= -1
 c286_neq143_144: x143 + x144 >= 1
 c287_neq143_144: - x143 - x144 >= -1
 c288_neq144_145: x144 + x145 >= 1
 c289_neq144_145: - x144 - x145 >= -1
 c290_neq145_146: x145 + x146 >= 1
 c291_neq145_146: - x145 - x146 >= -1
 c292_neq146_147: x146 + x147 >= 1
 c293_neq146_147: - x146 - x147 >= -1
 c294_neq147_148: x147 + x148 >= 1
 c295_neq147_148: - x147 - x148 >= -1
 c296_neq148_149: x148 + x149 >= 1
 c297_neq148_149: - x148 - x149 >= -1
 c298_neq149_150: x149 + x150 >= 1
 c299_neq149_150: - x149 - x150 >= -1
 c300_neq150_151: x150 + x151 >= 1
 c301_neq150_151: - x150 - x151 >= -1
 c302_neq151_152: x151 + x152 >= 1
 c303_neq151_152: - x151 - x152 >= -1
 c304_neq152_153: x152 + x153 >= 1
 c305_neq152_153: - x152 - x153 >= -1
 c306_neq153_154: x153 + x154 >= 1
 c307_neq153_154: - x153 - x154 >= -1
 c308_neq154_155: x154 + x155 >= 1
 c309_neq154_155: - x154 - x155 >= -1
 c310_neq155_156: x155 + x156 >= 1
 c311_neq155_156: - x155 - x156 >= -1
 c312_neq156_157: x156 + x157 >= 1
 c313_neq156_157: - x156 - x157 >= -1
 c314_neq157_158: x157 + x158 >= 1
 c315_neq157_158: - x157 - x158 >= -1
 c316_neq158_159: x158 + x159 >= 1
 c317_neq158_159: - x158 - x159 >= -1
 c318_neq159_160: x159 + x160 >= 1
 c319_neq159_160: - x159 - x160 >= -1
 c320_neq160_161: x160 + x161 >= 1
 c321_neq160_161: - x160 - x161 >= -1
 c322_neq161_162: x161 + x162 >= 1
 c323_neq161_162: - x161 - x162 >= -1
 c324_neq162_163: x162 + x163 >= 1
 c325_neq162_163: - x162 - x163 >= -1
 c326_neq163_164: x163 + x164 >= 1
 c327_neq163_164: - x163 - x164 >= -1
 c328_neq164_165: x164 + x165 >= 1
 c329_neq164_165: - x164 - x165 >= -1
 c330_neq165_166: x165 + x166 >= 1
 c331_neq165_166: - x165 - x166 >= -1
 c332_neq166_167: x166 + x167 >= 1
 c333_neq166_167: - x166 - x167 >= -1
 c334_neq167_168: x167 + x168 >= 1
 c335_neq167_168: - x167 - x168 >= -1
 c336_neq168_169: x168 + x169 >= 1
 c337_neq168_169: - x168 - x169 >= -1
 c338_neq169_170: x169 + x170 >= 1
 c339_neq169_170: - x169 - x170 >= -1
 c340_neq170_171: x170 + x171 >= 1
 c341_neq170_171: - x170 - x171 >= -1
 c342_neq171_172: x171 + x172 >= 1
 c343_neq171_172: - x171 - x172 >= -1
 c344_neq172_173: x172 + x173 >= 1
 c345_neq172_173: - x172 - x173 >= -1
 c346_neq173_174: x173 + x174 >= 1
 c347_neq173_174: - x173 - x174 >= -1
 c348_neq174_175: x174 + x175 >= 1
 c349_neq174_175: - x174 - x175 >= -1
 c350_neq175_176: x175 + x176 >= 1
 c351_neq175_176: - x175 - x176 >= -1
 c352_neq176_177: x176 + x177 >= 1
 c353_neq176_177: - x176 - x177 >= -1
 c354_neq177_178: x177 + x178 >= 1
 c355_neq177_178: - x177 - x178 >= -1
 c356_neq178_179: x178 + x179 >= 1
 c357_neq178_179: - x178 - x179 >= -1
 c358_neq179_180: x179 + x180 >= 1
 c359_neq179_180: - x179 - x180 >= -1
 c360_neq180_181: x180 + x181 >= 1
 c361_neq180_181: - x180 - x181 >= -1
 c362_neq181_182: x181 + x182 >= 1
 c363_neq181_182: - x181 - x182 >= -1
 c364_neq182_183: x182 + x183 >= 1
 c365_neq182_183: - x182 - x183 >= -1
 c366_neq183_184: x183 + x184 >= 1
 c367_neq183_184: - x183 - x184 >= -1
 c368_neq184_185: x184 + x185 >= 1
 c369_neq184_185: - x184 - x185 >= -1
 c370_neq185_186: x185 + x186 >= 1
 c371_neq185_186: - x185 - x186 >= -1
 c372_neq186_187: x186 + x187 >= 1
 c373_neq186_187: - x186 - x187 >= -1
 c374_neq187_188: x187 + x188 >= 1
 c375_neq187_188: - x187 - x188 >= -1
 c376_neq188_189: x188 + x189 >= 1
 c377_neq188_189: - x188 - x189 >= -1
 c378_neq189_190: x189 + x190 >= 1
 c379_neq189_190: - x189 - x190 >= -1
 c380_neq190_191: x190 + x191 >= 1
 c381_neq190_191: - x190 - x191 >= -1
 c382_neq191_192: x191 + x192 >= 1
 c383_neq191_192: - x191 - x192 >= -1
 c384_neq192_193: x192 + x193 >= 1
 c385_neq192_193: - x192 - x193 >= -1
 c386_neq193_194: x193 + x194 >= 1
 c387_neq193_194: - x193 - x194 >= -1
 c388_neq194_195: x194 + x195 >= 1
 c389_neq194_195: - x194 - x195 >= -1
 c390_neq195_196: x195 + x196 >= 1
 c391_neq195_196: - x195 - x196 >= -1
 c392_neq196_197: x196 + x197 >= 1
 c393_neq196_197: - x196 - x197 >= -1
 c394_neq197_198: x197 + x198 >= 1
 c395_neq197_198: - x197 - x198 >= -1
 c396_neq198_199: x198 + x199 >= 1
 c397_neq198_199: - x198 - x199 >= -1
 c398_neq199_200: x199 + x200 >= 1
 c399_neq199_200: - x199 - x200 >= -1
 c400_neq200_201: x200 + x201 >= 1
 c401_neq200_201: - x200 - x201 >= -1
 c402_neq201_202: x201 + x202 >= 1
 c403_neq201_202: - x201 - x202 >= -1
 c404_neq202_203: x202 + x203 >= 1
 c405_neq202_203: - x202 - x203 >= -1
 c406_neq203_204: x203 + x204 >= 1
 c407_neq203_204: - x203 - x204 >= -1
 c408_neq204_205: x204 + x205 >= 1
 c409_neq204_205: - x204 - x205 >= -1
 c410_neq205_206: x205 + x206 >= 1
 c411_neq205_206: - x205 - x206 >= -1
 c412_neq206_207: x206 + x207 >= 1
 c413_neq206_207: - x206 - x207 >= -1
 c414_neq207_208: x207 + x208 >= 1
 c415_neq207_208: - x207 - x208 >= -1
 c416_neq208_209: x208 + x209 >= 1
 c417_neq208_209: - x208 - x209 >= -1
 c418_neq209_210: x209 + x210 >= 1
 c419_neq209_210: - x209 - x210 >= -1
 c420_neq210_211: x210 + x211 >= 1
 c421_neq210_211: - x210 - x211 >= -1
 c422_neq211_212: x211 + x212 >= 1
 c423_neq211_212: - x211 - x212 >= -1
 c424_neq212_213: x212 + x213 >= 1
 c425_neq212_213: - x212 - x213 >= -1
 c426_neq213_214: x213 + x214 >= 1
 c427_neq213_214: - x213 - x214 >= -1
 c428_neq214_215: x214 + x215 >= 1
 c429_neq214_215: - x214 - x215 >= -1
 c430_neq215_216: x215 + x216 >= 1
 c431_neq215_216: - x215 - x216 >= -1
 c432_neq216_217: x216 + x217 >= 1
 c433_neq216_217: - x216 - x217 >= -1
 c434_neq217_218: x217 + x218 >= 1
 c435_neq217_218: - x217 - x218 >= -1
 c436_neq218_219: x218 + x219 >= 1
 c437_neq218_219: - x218 - x219 >= -1
 c438_neq219_220: x219 + x220 >= 1
 c439_neq219_220: - x219 - x220 >= -1
 c440_neq220_221: x220 + x221 >= 1
 c441_neq220_221: - x220 - x221 >= -1
 c442_neq221_222: x221 + x222 >= 1
 c443_neq221_222: - x221 - x222 >= -1
 c444_neq222_223: x222 + x223 >= 1
 c445_neq222_223: - x222 - x223 >= -1
 c446_neq223_224: x223 + x224 >= 1
 c447_neq223_224: - x223 - x224 >= -1
 c448_neq224_225: x224 + x225 >= 1
 c449_neq224_225: - x224 - x225 >= -1
 c450_neq225_226: x225 + x226 >= 1
 c451_neq225_226: - x225 - x226 >= -1
 c452_neq226_227: x226 + x227 >= 1
 c453_neq226_227: - x226 - x227 >= -1
 c454_neq227_228: x227 + x228 >= 1
 c455_neq227_228: - x227 - x228 >= -1
 c456_neq228_229: x228 + x229 >= 1
 c457_neq228_229: - x228 - x229 >= -1
 c458_neq229_230: x229 + x230 >= 1
 c459_neq229_230: - x229 - x230 >= -1
 c460_neq230_231: x230 + x231 >= 1
 c461_neq230_231: - x230 - x231 >= -1
 c462_neq231_232: x231 + x232 >= 1
 c463_neq231_232: - x231 - x232 >= -1
 c464_neq232_233: x232 + x233 >= 1
 c465_neq232_233: - x232 - x233 >= -1
 c466_neq233_234: x233 + x234 >= 1
 c467_neq233_234: - x233 - x234 >= -1
 c468_neq234_235: x234 + x235 >= 1
 c469_neq234_235: - x234 - x235 >= -1
 c470_neq235_236: x235 + x236 >= 1
 c471_neq235_236: - x235 - x236 >= -1
 c472_neq236_237: x236 + x237 >= 1
 c473_neq236_237: - x236 - x237 >= -1
 c474_neq237_238: x237 + x238 >= 1
 c475_neq237_238: - x237 - x238 >= -1
 c476_neq238_239: x238 + x239 >= 1
 c477_neq238_239: - x238 - x239 >= -1
 c478_neq239_240: x239 + x240 >= 1
 c479_neq239_240: - x239 - x240 >= -1
 c480_neq240_241: x240 + x241 >= 1
 c481_neq240_241: - x240 - x241 >= -1
 c482_neq241_242: x241 + x242 >= 1
 c483_neq241_242: - x241 - x242 >= -1
 c484_neq242_243: x242 + x243 >= 1
 c485_neq242_243: - x242 - x243 >= -1
 c486_neq243_244: x243 + x244 >= 1
 c487_neq243_244: - x243 - x244 >= -1
 c488_neq244_245: x244 + x245 >= 1
 c489_neq244_245: - x244 - x245 >= -1
 c490_neq245_246: x245 + x246 >= 1
 c491_neq245_246: - x245 - x246 >= -1
 c492_neq246_247: x246 + x247 >= 1
 c493_neq246_247: - x246 - x247 >= -1
 c494_neq247_248: x247 + x248 >= 1
 c495_neq247_248: - x247 - x248 >= -1
 c496_neq248_249: x248 + x249 >= 1
 c497_neq248_249: - x248 - x249 >= -1
 c498_neq249_250: x249 + x250 >= 1
 c499_neq249_250: - x249 - x250 >= -1
 c500_neq250_251: x250 + x251 >= 1
 c501_neq250_251: - x250 - x251 >= -1
 c502_neq251_252: x251 + x252 >= 1
 c503_neq251_252: - x251 - x252 >= -1
 c504_neq252_253: x252 + x253 >= 1
 c505_neq252_253: - x252 - x253 >= -1
 c506_neq253_254: x253 + x254 >= 1
 c507_neq253_254: - x253 - x254 >= -1
 c508_neq254_255: x254 + x255 >= 1
 c509_neq254_255: - x254 - x255 >= -1
 c510_neq255_256: x255 + x256 >= 1
 c511_neq255_256: - x255 - x256 >= -1
 c512_neq256_257: x256 + x257 >= 1
 c513_neq256_257: - x256 - x257 >= -1
 c514_neq257_258: x257 + x258 >= 1
 c515_neq257_258: - x257 - x258 >= -1
 c516_neq258_259: x258 + x259 >= 1
 c517_neq258_259: - x258 - x259 >= -1
 c518_neq259_260: x259 + x260 >= 1
 c519_neq259_260: - x259 - x260 >= -1
 c520_neq260_261: x260 + x261 >= 1
 c521_neq260_261: - x260 - x261 >= -1
 c522_neq261_262: x261 + x262 >= 1
 c523_neq261_262: - x261 - x262 >= -1
 c524_neq262_263: x262 + x263 >= 1
 c525_neq262_263: - x262 - x263 >= -1
 c526_neq263_264: x263 + x264 >= 1
 c527_neq263_264: - x263 - x264 >= -1
 c528_neq264_265: x264 + x265 >= 1
 c529_neq264_265: - x264 - x265 >= -1
 c530_neq265_266: x265 + x266 >= 1
 c531_neq265_266: - x265 - x266 >= -1
 c532_neq266_267: x266 + x267 >= 1
 c533_neq266_267: - x266 - x267 >= -1
 c534_neq267_268: x267 + x268 >= 1
 c535_neq267_268: - x267 - x268 >= -1
 c536_neq268_269: x268 + x269 >= 1
 c537_neq268_269: - x268 - x269 >= -1
 c538_neq269_270: x269 + x270 >= 1
 c539_neq269_270: - x269 - x270 >= -1
 c540_neq270_271: x270 + x271 >= 1
 c541_neq270_271: - x270 - x271 >= -1
 c542_neq271_272: x271 + x272 >= 1
 c543_neq271_272: - x271 - x272 >= -1
 c544_neq272_273: x272 + x273 >= 1
 c545_neq272_273: - x272 - x273 >= -1
 c546_neq273_274: x273 + x274 >= 1
 c547_neq273_274: - x273 - x274 >= -1
 c548_neq274_275: x274 + x275 >= 1
 c549_neq274_275: - x274 - x275 >= -1
 c550_neq275_276: x275 + x276 >= 1
 c551_neq275_276: - x275 - x276 >= -1
 c552_neq276_277: x276 + x277 >= 1
 c553_neq276_277: - x276 - x277 >= -1
 c554_neq277_278: x277 + x278 >= 1
 c555_neq277_278: - x277 - x278 >= -1
 c556_neq278_279: x278 + x279 >= 1
 c557_neq278_279: - x278 - x279 >= -1
 c558_neq279_280: x279 + x280 >= 1
 c559_neq279_280: - x279 - x280 >= -1
 c560_neq280_281: x280 + x281 >= 1
 c561_neq280_281: - x280 - x281 >= -1
 c562_neq281_282: x281 + x282 >= 1
 c563_neq281_282: - x281 - x282 >= -1
 c564_neq282_283: x282 + x283 >= 1
 c565_neq282_283: - x282 - x283 >= -1
 c566_neq283_284: x283 + x284 >= 1
 c567_neq283_284: - x283 - x284 >= -1
 c568_neq284_285: x284 + x285 >= 1
 c569_neq284_285: - x284 - x285 >= -1
 c570_neq285_286: x285 + x286 >= 1
 c571_neq285_286: - x285 - x286 >= -1
 c572_neq286_287: x286 + x287 >= 1
 c573_neq286_287: - x286 - x287 >= -1
 c574_neq287_288: x287 + x288 >= 1
 c575_neq287_288: - x287 - x288 >= -1
 c576_neq288_289: x288 + x289 >= 1
 c577_neq288_289: - x288 - x289 >= -1
 c578_neq289_290: x289 + x290 >= 1
 c579_neq289_290: - x289 - x290 >= -1
 c580_neq290_291: x290 + x291 >= 1
 c581_neq290_291: - x290 - x291 >= -1
 c582_neq291_292: x291 + x292 >= 1
 c583_neq291_292: - x291 - x292 >= -1
 c584_neq292_293: x292 + x293 >= 1
 c585_neq292_293: - x292 - x293 >= -1
 c586_neq293_294: x293 + x294 >= 1
 c587_neq293_294: - x293 - x294 >= -1
 c588_neq294_295: x294 + x295 >= 1
 c589_neq294_295: - x294 - x295 >= -1
 c590_neq295_296: x295 + x296 >= 1
 c591_neq295_296: - x295 - x296 >= -1
 c592_neq296_297: x296 + x297 >= 1
 c593_neq296_297: - x296 - x297 >= -1
 c594_neq297_298: x297 + x298 >= 1
 c595_neq297_298: - x297 - x298 >= -1
 c596_neq298_299: x298 + x299 >= 1
 c597_neq298_299: - x298 - x299 >= -1
 c598_neq299_300: x299 + x300 >= 1
 c599_neq299_300: - x299 - x300 >= -1
 c600_neq300_301: x300 + x301 >= 1
 c601_neq300_301: - x300 - x301 >= -1
 c602_neq301_302: x301 + x302 >= 1
 c603_neq301_302: - x301 - x302 >= -1
 c604_neq302_303: x302 + x303 >= 1
 c605_neq302_303: - x302 - x303 >= -1
 c606_neq303_304: x303 + x304 >= 1
 c607_neq303_304: - x303 - x304 >= -1
 c608_neq304_305: x304 + x305 >= 1
 c609_neq304_305: - x304 - x305 >= -1
 c610_neq305_306: x305 + x306 >= 1
 c611_neq305_306: - x305 - x306 >= -1
 c612_neq306_307: x306 + x307 >= 1
 c613_neq306_307: - x306 - x307 >= -1
 c614_neq307_308: x307 + x308 >= 1
 c615_neq307_308: - x307 - x308 >= -1
 c616_neq308_309: x308 + x309 >= 1
 c617_neq308_309: - x308 - x309 >= -1
 c618_neq309_310: x309 + x310 >= 1
 c619_neq309_310: - x309 - x310 >= -1
 c620_neq310_311: x310 + x311 >= 1
 c621_neq310_311: - x310 - x311 >= -1
 c622_neq311_312: x311 + x312 >= 1
 c623_neq311_312: - x311 - x312 >= -1
 c624_neq312_313: x312 + x313 >= 1
 c625_neq312_313: - x312 - x313 >= -1
 c626_neq313_314: x313 + x314 >= 1
 c627_neq313_314: - x313 - x314 >= -1
 c628_neq314_315: x314 + x315 >= 1
 c629_neq314_315: - x314 - x315 >= -1
 c630_neq315_316: x315 + x316 >= 1
 c631_neq315_316: - x315 - x316 >= -1
 c632_neq316_317: x316 + x317 >= 1
 c633_neq316_317: - x316 - x317 >= -1
 c634_neq317_318: x317 + x318 >= 1
 c635_neq317_318: - x317 - x318 >= -1
 c636_neq318_319: x318 + x319 >= 1
 c637_neq318_319: - x318 - x319 >= -1
 c638_neq319_320: x319 + x320 >= 1
 c639_neq319_320: - x319 - x320 >= -1
 c640_neq320_321: x320 + x321 >= 1
 c641_neq320_321: - x320 - x321 >= -1
 c642_neq321_322: x321 + x322 >= 1
 c643_neq321_322: - x321 - x322 >= -1
 c644_neq322_323: x322 + x323 >= 1
 c645_neq322_323: - x322 - x323 >= -1
 c646_neq323_324: x323 + x324 >= 1
 c647_neq323_324: - x323 - x324 >= -1
 c648_neq324_325: x324 + x325 >= 1
 c649_neq324_325: - x324 - x325 >= -1
 c650_neq325_326: x325 + x326 >= 1
 c651_neq325_326: - x325 - x326 >= -1
 c652_neq326_327: x326 + x327 >= 1
 c653_neq326_327: - x326 - x327 >= -1
 c654_neq327_328: x327 + x328 >= 1
 c655_neq327_328: - x327 - x328 >= -1
 c656_neq328_329: x328 + x329 >= 1
 c657_neq328_329: - x328 - x329 >= -1
 c658_neq329_330: x329 + x330 >= 1
 c659_neq329_330: - x329 - x330 >= -1
 c660_neq330_331: x330 + x331 >= 1
 c661_neq330_331: - x330 - x331 >= -1
 c662_neq331_332: x331 + x332 >= 1
 c663_neq331_332: - x331 - x332 >= -1
 c664_neq332_333: x332 + x333 >= 1
 c665_neq332_333: - x332 - x333 >= -1
 c666_neq333_334: x333 + x334 >= 1
 c667_neq333_334: - x333 - x334 >= -1
 c668_neq334_335: x334 + x335 >= 1
 c669_neq334_335: - x334 - x335 >= -1
 c670_neq335_336: x335 + x336 >= 1
 c671_neq335_336: - x335 - x336 >= -1
 c672_neq336_337: x336 + x337 >= 1
 c673_neq336_337: - x336 - x337 >= -1
 c674_neq337_338: x337 + x338 >= 1
 c675_neq337_338: - x337 - x338 >= -1
 c676_neq338_339: x338 + x339 >= 1
 c677_neq338_339: - x338 - x339 >= -1
 c678_neq339_340: x339 + x340 >= 1
 c679_neq339_340: - x339 - x340 >= -1
 c680_neq340_341: x340 + x341 >= 1
 c681_neq340_341: - x340 - x341 >= -1
 c682_neq341_342: x341 + x342 >= 1
 c683_neq341_342: - x341 - x342 >= -1
 c684_neq342_343: x342 + x343 >= 1
 c685_neq342_343: - x342 - x343 >= -1
 c686_neq343_344: x343 + x344 >= 1
 c687_neq343_344: - x343 - x344 >= -1
 c688_neq344_345: x344 + x345 >= 1
 c689_neq344_345: - x344 - x345 >= -1
 c690_neq345_346: x345 + x346 >= 1
 c691_neq345_346: - x345 - x346 >= -1
 c692_neq346_347: x346 + x347 >= 1
 c693_neq346_347: - x346 - x347 >= -1
 c694_neq347_348: x347 + x348 >= 1
 c695_neq347_348: - x347 - x348 >= -1
 c696_neq348_349: x348 + x349 >= 1
 c697_neq348_349: - x348 - x349 >= -1
 c698_neq349_350: x349 + x350 >= 1
 c699_neq349_350: - x349 - x350 >= -1
 c700_neq350_351: x350 + x351 >= 1
 c701_neq350_351: - x350 - x351 >= -1
 c702_neq351_352: x351 + x352 >= 1
 c703_neq351_352: - x351 - x352 >= -1
 c704_neq352_353: x352 + x353 >= 1
 c705_neq352_353: - x352 - x353 >= -1
 c706_neq353_354: x353 + x354 >= 1
 c707_neq353_354: - x353 - x354 >= -1
 c708_neq354_355: x354 + x355 >= 1
 c709_neq354_355: - x354 - x355 >= -1
 c710_neq355_356: x355 + x356 >= 1
 c711_neq355_356: - x355 - x356 >= -1
 c712_neq356_357: x356 + x357 >= 1
 c713_neq356_357: - x356 - x357 >= -1
 c714_neq357_358: x357 + x358 >= 1
 c715_neq357_358: - x357 - x358 >= -1
 c716_neq358_359: x358 + x359 >= 1
 c717_neq358_359: - x358 - x359 >= -1
 c718_neq359_360: x359 + x360 >= 1
 c719_neq359_360: - x359 - x360 >= -1
 c720_neq360_361: x360 + x361 >= 1
 c721_neq360_361: - x360 - x361 >= -1
 c722_neq361_362: x361 + x362 >= 1
 c723_neq361_362: - x361 - x362 >= -1
 c724_neq362_363: x362 + x363 >= 1
 c725_neq362_363: - x362 - x363 >= -1
 c726_neq363_364: x363 + x364 >= 1
 c727_neq363_364: - x363 - x364 >= -1
 c728_neq364_365: x364 + x365 >= 1
 c729_neq364_365: - x364 - x365 >= -1
 c730_neq365_366: x365 + x366 >= 1
 c731_neq365_366: - x365 - x366 >= -1
 c732_neq366_367: x366 + x367 >= 1
 c733_neq366_367: - x366 - x367 >= -1
 c734_neq367_368: x367 + x368 >= 1
 c735_neq367_368: - x367 - x368 >= -1
 c736_neq368_369: x368 + x369 >= 1
 c737_neq368_369: - x368 - x369 >= -1
 c738_neq369_370: x369 + x370 >= 1
 c739_neq369_370: - x369 - x370 >= -1
 c740_neq370_371: x370 + x371 >= 1
 c741_neq370_371: - x370 - x371 >= -1
 c742_neq371_372: x371 + x372 >= 1
 c743_neq371_372: - x371 - x372 >= -1
 c744_neq372_373: x372 + x373 >= 1
 c745_neq372_373: - x372 - x373 >= -1
 c746_neq373_374: x373 + x374 >= 1
 c747_neq373_374: - x373 - x374 >= -1
 c748_neq374_375: x374 + x375 >= 1
 c749_neq374_375: - x374 - x375 >= -1
 c750_neq375_376: x375 + x376 >= 1
 c751_neq375_376: - x375 - x376 >= -1
 c752_neq376_377: x376 + x377 >= 1
 c753_neq376_377: - x376 - x377 >= -1
 c754_neq377_378: x377 + x378 >= 1
 c755_neq377_378: - x377 - x378 >= -1
 c756_neq378_379: x378 + x379 >= 1
 c757_neq378_379: - x378 - x379 >= -1
 c758_neq379_380: x379 + x380 >= 1
 c759_neq379_380: - x379 - x380 >= -1
 c760_neq380_381: x380 + x381 >= 1
 c761_neq380_381: - x380 - x381 >= -1
 c762_neq381_382: x381 + x382 >= 1
 c763_neq381_382: - x381 - x382 >= -1
 c764_neq382_383: x382 + x383 >= 1
 c765_neq382_383: - x382 - x383 >= -1
 c766_neq383_384: x383 + x384 >= 1
 c767_neq383_384: - x383 - x384 >= -1
 c768_neq384_385: x384 + x385 >= 1
 c769_neq384_385: - x384 - x385 >= -1
 c770_neq385_386: x385 + x386 >= 1
 c771_neq385_386: - x385 - x386 >= -1
 c772_neq386_387: x386 + x387 >= 1
 c773_neq386_387: - x386 - x387 >= -1
 c774_neq387_388: x387 + x388 >= 1
 c775_neq387_388: - x387 - x388 >= -1
 c776_neq388_389: x388 + x389 >= 1
 c777_neq388_389: - x388 - x389 >= -1
 c778_neq389_390: x389 + x390 >= 1
 c779_neq389_390: - x389 - x390 >= -1
 c780_neq390_391: x390 + x391 >= 1
 c781_neq390_391: - x390 - x391 >= -1
 c782_neq391_392: x391 + x392 >= 1
 c783_neq391_392: - x391 - x392 >= -1
 c784_neq392_393: x392 + x393 >= 1
 c785_neq392_393: - x392 - x393 >= -1
 c786_neq393_394: x393 + x394 >= 1
 c787_neq393_394: - x393 - x394 >= -1
 c788_neq394_395: x394 + x395 >= 1
 c789_neq394_395: - x394 - x395 >= -1
 c790_neq395_396: x395 + x396 >= 1
 c791_neq395_396: - x395 - x396 >= -1
 c792_neq396_397: x396 + x397 >= 1
 c793_neq396_397: - x396 - x397 >= -1
 c794_neq397_398: x397 + x398 >= 1
 c795_neq397_398: - x397 - x398 >= -1
 c796_neq398_399: x398 + x399 >= 1
 c797_neq398_399: - x398 - x399 >= -1
 c798_neq399_400: x399 + x400 >= 1
 c799_neq399_400: - x399 - x400 >= -1
 c800_neq400_401: x400 + x401 >= 1
 c801_neq400_401: - x400 - x401 >= -1
 c802_neq401_402: x401 + x402 >= 1
 c803_neq401_402: - x401 - x402 >= -1
 c804_neq402_403: x402 + x403 >= 1
 c805_neq402_403: - x402 - x403 >= -1
 c806_neq403_404: x403 + x404 >= 1
 c807_neq403_404: - x403 - x404 >= -1
 c808_neq404_405: x404 + x405 >= 1
 c809_neq404_405: - x404 - x405 >= -1
 c810_neq405_406: x405 + x406 >= 1
 c811_neq405_406: - x405 - x406 >= -1
 c812_neq406_407: x406 + x407 >= 1
 c813_neq406_407: - x406 - x407 >= -1
 c814_neq407_408: x407 + x408 >= 1
 c815_neq407_408: - x407 - x408 >= -1
 c816_neq408_409: x408 + x409 >= 1
 c817_neq408_409: - x408 - x409 >= -1
 c818_neq409_410: x409 + x410 >= 1
 c819_neq409_410: - x409 - x410 >= -1
 c820_neq410_411: x410 + x411 >= 1
 c821_neq410_411: - x410 - x411 >= -1
 c822_neq411_412: x411 + x412 >= 1
 c823_neq411_412: - x411 - x412 >= -1
 c824_neq412_413: x412 + x413 >= 1
 c825_neq412_413: - x412 - x413 >= -1
 c826_neq413_414: x413 + x414 >= 1
 c827_neq413_414: - x413 - x414 >= -1
 c828_neq414_415: x414 + x415 >= 1
 c829_neq414_415: - x414 - x415 >= -1
 c830_neq415_416: x415 + x416 >= 1
 c831_neq415_416: - x415 - x416 >= -1
 c832_neq416_417: x416 + x417 >= 1
 c833_neq416_417: - x416 - x417 >= -1
 c834_neq417_418: x417 + x418 >= 1
 c835_neq417_418: - x417 - x418 >= -1
 c836_neq418_419: x418 + x419 >= 1
 c837_neq418_419: - x418 - x419 >= -1
 c838_neq419_420: x419 + x420 >= 1
 c839_neq419_420: - x419 - x420 >= -1
 c840_neq420_421: x420 + x421 >= 1
 c841_neq420_421: - x420 - x421 >= -1
 c842_neq421_422: x421 + x422 >= 1
 c843_neq421_422: - x421 - x422 >= -1
 c844_neq422_423: x422 + x423 >= 1
 c845_neq422_423: - x422 - x423 >= -1
 c846_neq423_424: x423 + x424 >= 1
 c847_neq423_424: - x423 - x424 >= -1
 c848_neq424_425: x424 + x425 >= 1
 c849_neq424_425: - x424 - x425 >= -1
 c850_neq425_426: x425 + x426 >= 1
 c851_neq425_426: - x425 - x426 >= -1
 c852_neq426_427: x426 + x427 >= 1
 c853_neq426_427: - x426 - x427 >= -1
 c854_neq427_428: x427 + x428 >= 1
 c855_neq427_428: - x427 - x428 >= -1
 c856_neq428_429: x428 + x429 >= 1
 c857_neq428_429: - x428 - x429 >= -1
 c858_neq429_430: x429 + x430 >= 1
 c859_neq429_430: - x429 - x430 >= -1
 c860_neq430_431: x430 + x431 >= 1
 c861_neq430_431: - x430 - x431 >= -1
 c862_neq431_432: x431 + x432 >= 1
 c863_neq431_432: - x431 - x432 >= -1
 c864_neq432_433: x432 + x433 >= 1
 c865_neq432_433: - x432 - x433 >= -1
 c866_neq433_434: x433 + x434 >= 1
 c867_neq433_434: - x433 - x434 >= -1
 c868_neq434_435: x434 + x435 >= 1
 c869_neq434_435: - x434 - x435 >= -1
 c870_neq435_436: x435 + x436 >= 1
 c871_neq435_436: - x435 - x436 >= -1
 c872_neq436_437: x436 + x437 >= 1
 c873_neq436_437: - x436 - x437 >= -1
 c874_neq437_438: x437 + x438 >= 1
 c875_neq437_438: - x437 - x438 >= -1
 c876_neq438_439: x438 + x439 >= 1
 c877_neq438_439: - x438 - x439 >= -1
 c878_neq439_440: x439 + x440 >= 1
 c879_neq439_440: - x439 - x440 >= -1
 c880_neq440_441: x440 + x441 >= 1
 c881_neq440_441: - x440 - x441 >= -1
 c882_neq441_442: x441 + x442 >= 1
 c883_neq441_442: - x441 - x442 >= -1
 c884_neq442_443: x442 + x443 >= 1
 c885_neq442_443: - x442 - x443 >= -1
 c886_neq443_444: x443 + x444 >= 1
 c887_neq443_444: - x443 - x444 >= -1
 c888_neq444_445: x444 + x445 >= 1
 c889_neq444_445: - x444 - x445 >= -1
 c890_neq445_446: x445 + x446 >= 1
 c891_neq445_446: - x445 - x446 >= -1
 c892_neq446_447: x446 + x447 >= 1
 c893_neq446_447: - x446 - x447 >= -1
 c894_neq447_448: x447 + x448 >= 1
 c895_neq447_448: - x447 - x448 >= -1
 c896_neq448_449: x448 + x449 >= 1
 c897_neq448_449: - x448 - x449 >= -1
 c898_neq449_450: x449 + x450 >= 1
 c899_neq449_450: - x449 - x450 >= -1
 c900_neq450_451: x450 + x451 >= 1
 c901_neq450_451: - x450 - x451 >= -1
 c902_neq451_452: x451 + x452 >= 1
 c903_neq451_452: - x451 - x452 >= -1
 c904_neq452_453: x452 + x453 >= 1
 c905_neq452_453: - x452 - x453 >= -1
 c906_neq453_454: x453 + x454 >= 1
 c907_neq453_454: - x453 - x454 >= -1
 c908_neq454_455: x454 + x455 >= 1
 c909_neq454_455: - x454 - x455 >= -1
 c910_neq455_456: x455 + x456 >= 1
 c911_neq455_456: - x455 - x456 >= -1
 c912_neq456_457: x456 + x457 >= 1
 c913_neq456_457: - x456 - x457 >= -1
 c914_neq457_458: x457 + x458 >= 1
 c915_neq457_458: - x457 - x458 >= -1
 c916_neq458_459: x458 + x459 >= 1
 c917_neq458_459: - x458 - x459 >= -1
 c918_neq459_460: x459 + x460 >= 1
 c919_neq459_460: - x459 - x460 >= -1
 c920_neq460_461: x460 + x461 >= 1
 c921_neq460_461: - x460 - x461 >= -1
 c922_neq461_462: x461 + x462 >= 1
 c923_neq461_462: - x461 - x462 >= -1
 c924_neq462_463: x462 + x463 >= 1
 c925_neq462_463: - x462 - x463 >= -1
 c926_neq463_464: x463 + x464 >= 1
 c927_neq463_464: - x463 - x464 >= -1
 c928_neq464_465: x464 + x465 >= 1
 c929_neq464_465: - x464 - x465 >= -1
 c930_neq465_466: x465 + x466 >= 1
 c931_neq465_466: - x465 - x466 >= -1
 c932_neq466_467: x466 + x467 >= 1
 c933_neq466_467: - x466 - x467 >= -1
 c934_neq467_468: x467 + x468 >= 1
 c935_neq467_468: - x467 - x468 >= -1
 c936_neq468_469: x468 + x469 >= 1
 c937_neq468_469: - x468 - x469 >= -1
 c938_neq469_470: x469 + x470 >= 1
 c939_neq469_470: - x469 - x470 >= -1
 c940_neq470_471: x470 + x471 >= 1
 c941_neq470_471: - x470 - x471 >= -1
 c942_neq471_472: x471 + x472 >= 1
 c943_neq471_472: - x471 - x472 >= -1
 c944_neq472_473: x472 + x473 >= 1
 c945_neq472_473: - x472 - x473 >= -1
 c946_neq473_474: x473 + x474 >= 1
 c947_neq473_474: - x473 - x474 >= -1
 c948_neq474_475: x474 + x475 >= 1
 c949_neq474_475: - x474 - x475 >= -1
 c950_neq475_476: x475 + x476 >= 1
 c951_neq475_476: - x475 - x476 >= -1
 c952_neq476_477: x476 + x477 >= 1
 c953_neq476_477: - x476 - x477 >= -1
 c954_neq477_478: x477 + x478 >= 1
 c955_neq477_478: - x477 - x478 >= -1
 c956_neq478_479: x478 + x479 >= 1
 c957_neq478_479: - x478 - x479 >= -1
 c958_neq479_480: x479 + x480 >= 1
 c959_neq479_480: - x479 - x480 >= -1
 c960_neq480_481: x480 + x481 >= 1
 c961_neq480_481: - x480 - x481 >= -1
 c962_neq481_482: x481 + x482 >= 1
 c963_neq481_482: - x481 - x482 >= -1
 c964_neq482_483: x482 + x483 >= 1
 c965_neq482_483: - x482 - x483 >= -1
 c966_neq483_484: x483 + x484 >= 1
 c967_neq483_484: - x483 - x484 >= -1
 c968_neq484_485: x484 + x485 >= 1
 c969_neq484_485: - x484 - x485 >= -1
 c970_neq485_486: x485 + x486 >= 1
 c971_neq485_486: - x485 - x486 >= -1
 c972_neq486_487: x486 + x487 >= 1
 c973_neq486_487: - x486 - x487 >= -1
 c974_neq487_488: x487 + x488 >= 1
 c975_neq487_488: - x487 - x488 >= -1
 c976_neq488_489: x488 + x489 >= 1
 c977_neq488_489: - x488 - x489 >= -1
 c978_neq489_490: x489 + x490 >= 1
 c979_neq489_490: - x489 - x490 >= -1
 c980_neq490_491: x490 + x491 >= 1
 c981_neq490_491: - x490 - x491 >= -1
 c982_neq491_492: x491 + x492 >= 1
 c983_neq491_492: - x491 - x492 >= -1
 c984_neq492_493: x492 + x493 >= 1
 c985_neq492_493: - x492 - x493 >= -1
 c986_neq493_494: x493 + x494 >= 1
 c987_neq493_494: - x493 - x494 >= -1
 c988_neq494_495: x494 + x495 >= 1
 c989_neq494_495: - x494 - x495 >= -1
 c990_neq495_496: x495 + x496 >= 1
 c991_neq495_496: - x495 - x496 >= -1
 c992_neq496_497: x496 + x497 >= 1
 c993_neq496_497: - x496 - x497 >= -1
 c994_neq497_498: x497 + x498 >= 1
 c995_neq497_498: - x497 - x498 >= -1
 c996_neq498_499: x498 + x499 >= 1
 c997_neq498_499: - x498 - x499 >= -1
 c998_neq499_500: x499 + x500 >= 1
 c999_neq499_500: - x499 - x500 >= -1
 c1000_neq500_501: x500 + x501 >= 1
 c1001_neq500_501: - x500 - x501 >= -1
 c1002_neq501_502: x501 + x502 >= 1
 c1003_neq501_502: - x501 - x502 >= -1
 c1004_neq502_503: x502 + x503 >= 1
 c1005_neq502_503: - x502 - x503 >= -1
 c1006_neq503_504: x503 + x504 >= 1
 c1007_neq503_504: - x503 - x504 >= -1
 c1008_neq504_505: x504 + x505 >= 1
 c1009_neq504_505: - x504 - x505 >= -1
 c1010_neq505_506: x505 + x506 >= 1
 c1011_neq505_506: - x505 - x506 >= -1
 c1012_neq506_507: x506 + x507 >= 1
 c1013_neq506_507: - x506 - x507 >= -1
 c1014_neq507_508: x507 + x508 >= 1
 c1015_neq507_508: - x507 - x508 >= -1
 c1016_neq508_509: x508 + x509 >= 1
 c1017_neq508_509: - x508 - x509 >= -1
 c1018_neq509_510: x509 + x510 >= 1
 c1019_neq509_510: - x509 - x510 >= -1
 c1020_neq510_511: x510 + x511 >= 1
 c1021_neq510_511: - x510 - x511 >= -1
Binary
 x0
 x1
 x2
 x3
 x4
 x5
 x6
 x7
 x8
 x9
 x10
 x11
 x12
 x13
 x14
 x15
 x16
 x17
 x18
 x19
 x20
 x21
 x22
 x23
 x24
 x25
 x26
 x27
 x28
 x29
 x30
 x31
 x32
 x33
 x34
 x35
 x36
 x37
 x38
 x39
 x40
 x41
 x42
 x43
 x44
 x45
 x46
 x47
 x48
 x49
 x50
 x51
 x52
 x53
 x54
 x55
 x56
 x57
 x58
 x59
 x60
 x61
 x62
 x63
 x64
 x65
 x66
 x67
 x68
 x69
 x70
 x71
 x72
 x73
 x74
 x75
 x76
 x77
 x78
 x79
 x80
 x81
 x82
 x83
 x84
 x85
 x86
 x87
 x88
 x89
 x90
 x91
 x92
 x93
 x94
 x95
 x96
 x97
 x98
 x99
 x100
 x101
 x102
 x103
 x104
 x105
 x106
 x107
 x108
 x109
 x110
 x111
 x112
 x113
 x114
 x115
 x116
 x117
 x118
 x119
 x120
 x121
 x122
 x123
 x124
 x125
 x126
 x127
 x128
 x129
 x130
 x131
 x132
 x133
 x134
 x135
 x136
 x137
 x138
 x139
 x140
 x141
 x142
 x143
 x144
 x145
 x146
 x147
 x148
 x149
 x150
 x151
 x152
 x153
 x154
 x155
 x156
 x157
 x158
 x159
 x160
 x161
 x162
 x163
 x164
 x165
 x166
 x167
 x168
 x169
 x170
 x171
 x172
 x173
 x174
 x175
 x176
 x177
 x178
 x179
 x180
 x181
 x182
 x183
 x184
 x185
 x186
 x187
 x188
 x189
 x190
 x191
 x192
 x193
 x194
 x195
 x196
 x197
 x198
 x199
 x200
 x201
 x202
 x203
 x204
 x205
 x206
 x207
 x208
 x209
 x210
 x211
 x212
 x213
 x214
 x215
 x216
 x217
 x218
 x219
 x220
 x221
 x222
 x223
 x224
 x225
 x226
 x227
 x228
 x229
 x230
 x231
 x232
 x233
 x234
 x235
 x236
 x237
 x238
 x239
 x240
 x241
 x242
 x243
 x244
 x245
 x246
 x247
 x248
 x249
 x250
 x251
 x252
 x253
 x254
 x255
 x256
 x257
 x258
 x259
 x260
 x261
 x262
 x263
 x264
 x265
 x266
 x267
 x268
 x269
 x270
 x271
 x272
 x273
 x274
 x275
 x276
 x277
 x278
 x279
 x280
 x281
 x282
 x283
 x284
 x285
 x286
 x287
 x288
 x289
 x290
 x291
 x292
 x293
 x294
 x295
 x296
 x297
 x298
 x299
 x300
 x301
 x302
 x303
 x304
 x305
 x306
 x307
 x308
 x309
 x310
 x311
 x312
 x313
 x314
 x315
 x316
 x317
 x318
 x319
 x320
 x321
 x322
 x323
 x324
 x325
 x326
 x327
 x328
 x329
 x330
 x331
 x332
 x333
 x334
 x335
 x336
 x337
 x338
 x339
 x340
 x341
 x342
 x343
 x344
 x345
 x346
 x347
 x348
 x349
 x350
 x351
 x352
 x353
 x354
 x355
 x356
 x357
 x358
 x359
 x360
 x361
 x362
 x363
 x364
 x365
 x366
 x367
 x368
 x369
 x370
 x371
 x372
 x373
 x374
 x375
 x376
 x377
 x378
 x379
 x380
 x381
 x382
 x383
 x384
 x385
 x386
 x387
 x388
 x389
 x390
 x391
 x392
 x393
 x394
 x395
 x396
 x397
 x398
 x399
 x400
 x401
 x402
 x403
 x404
 x405
 x406
 x407
 x408
 x409
 x410
 x411
 x412
 x413
 x414
 x415
 x416
 x417
 x418
 x419
 x420
 x421
 x422
 x423
 x424
 x425
 x426
 x427
 x428
 x429
 x430
 x431
 x432
 x433
 x434
 x435
 x436
 x437
 x438
 x439
 x440
 x441
 x442
 x443
 x444
 x445
 x446
 x447
 x448
 x449
 x450
 x451
 x452
 x453
 x454
 x455
 x456
 x457
 x458
 x459
 x460
 x461
 x462
 x463
 x464
 x465
 x466
 x467
 x468
 x469
 x470
 x471
 x472
 x473
 x474
 x475
 x476
 x477
 x478
 x479
 x480
 x481
 x482
 x483
 x484
 x485
 x486
 x487
 x488
 x489
 x490
 x491
 x492
 x493
 x494
 x495
 x496
 x497
 x498
 x499
 x500
 x501
 x502
 x503
 x504
 x505
 x506
 x507
 x508
 x509
 x510
 x511
End
