\ Boolean forbidden-tuple encoding
Minimize
 obj: 0
Subject To
 c0_neq0_1: x0 + x1 >= 1
 c1_neq0_1: - x0 - x1 >= -1
 c2_neq1_2: x1 + x2 >= 1
 c3_neq1_2: - x1 - x2 >= -1
 c4_neq2_3: x2 + x3 >= 1
 c5_neq2_3: - x2 - x3 >= -1
 c6_neq3_4: x3 + x4 >= 1
 c7_neq3_4: - x3 - x4 >= -1
 c8_neq4_5: x4 + x5 >= 1
 c9_neq4_5: - x4 - x5 >= -1
 c10_neq5_6: x5 + x6 >= 1
 c11_neq5_6: - x5 - x6 >= -1
 c12_neq6_7: x6 + x7 >= 1
 c13_neq6_7: - x6 - x7 >= -1
 c14_neq7_8: x7 + x8 >= 1
 c15_neq7_8: - x7 - x8 >= -1
 c16_neq8_9: x8 + x9 >= 1
 c17_neq8_9: - x8 - x9 >= -1
 c18_neq9_10: x9 + x10 >= 1
 c19_neq9_10: - x9 - x10 >= -1
 c20_neq10_11: x10 + x11 >= 1
 c21_neq10_11: - x10 - x11 >= -1
 c22_neq11_12: x11 + x12 >= 1
 c23_neq11_12: - x11 - x12 >= -1
 c24_neq12_13: x12 + x13 >= 1
 c25_neq12_13: - x12 - x13 >= -1
 c26_neq13_14: x13 + x14 >= 1
 c27_neq13_14: - x13 - x14 >= -1
 c28_neq14_15: x14 + x15 >= 1
 c29_neq14_15: - x14 - x15 >= -1
 c30_neq15_16: x15 + x16 >= 1
 c31_neq15_16: - x15 - x16 >= -1
 c32_neq16_17: x16 + x17 >= 1
 c33_neq16_17: - x16 - x17 >= -1
 c34_neq17_18: x17 + x18 >= 1
 c35_neq17_18: - x17 - x18 >= -1
 c36_neq18_19: x18 + x19 >= 1
 c37_neq18_19: - x18 - x19 >= -1
 c38_neq19_20: x19 + x20 >= 1
 c39_neq19_20: - x19 - x20 >= -1
 c40_neq20_21: x20 + x21 >= 1
 c41_neq20_21: - x20 - x21 >= -1
 c42_neq21_22: x21 + x22 >= 1
 c43_neq21_22: - x21 - x22 >= -1
 c44_neq22_23: x22 + x23 >= 1
 c45_neq22_23: - x22 - x23 >= -1
 c46_neq23_24: x23 + x24 >= 1
 c47_neq23_24: - x23 - x24 >= -1
 c48_neq24_25: x24 + x25 >= 1
 c49_neq24_25: - x24 - x25 >= -1
 c50_neq25_26: x25 + x26 >= 1
 c51_neq25_26: - x25 - x26 >= -1
 c52_neq26_27: x26 + x27 >= 1
 c53_neq26_27: - x26 - x27 >= -1
 c54_neq27_28: x27 + x28 >= 1
 c55_neq27_28: - x27 - x28 >= -1
 c56_neq28_29: x28 + x29 >= 1
 c57_neq28_29: - x28 - x29 >= -1
 c58_neq29_30: x29 + x30 >= 1
 c59_neq29_30: - x29 - x30 >= -1
 c60_neq30_31: x30 + x31 >= 1
 c61_neq30_31: - x30 - x31 >= -1
 c62_neq31_32: x31 + x32 >= 1
 c63_neq31_32: - x31 - x32 >= -1
 c64_neq32_33: x32 + x33 >= 1
 c65_neq32_33: - x32 - x33 >= -1
 c66_neq33_34: x33 + x34 >= 1
 c67_neq33_34: - x33 - x34 >= -1
 c68_neq34_35: x34 + x35 >= 1
 c69_neq34_35: - x34 - x35 >= -1
 c70_neq35_36: x35 + x36 >= 1
 c71_neq35_36: - x35 - x36 >= -1
 c72_neq36_37: x36 + x37 >= 1
 c73_neq36_37: - x36 - x37 >= -1
 c74_neq37_38: x37 + x38 >= 1
 c75_neq37_38: - x37 - x38 >= -1
 c76_neq38_39: x38 + x39 >= 1
 c77_neq38_39: - x38 - x39 >= -1
 c78_neq39_40: x39 + x40 >= 1
 c79_neq39_40: - x39 - x40 >= -1
 c80_neq40_41: x40 + x41 >= 1
 c81_neq40_41: - x40 - x41 >= -1
 c82_neq41_42: x41 + x42 >= 1
 c83_neq41_42: - x41 - x42 >= -1
 c84_neq42_43: x42 + x43 >= 1
 c85_neq42_43: - x42 - x43 >= -1
 c86_neq43_44: x43 + x44 >= 1
 c87_neq43_44: - x43 - x44 >= -1
 c88_neq44_45: x44 + x45 >= 1
 c89_neq44_45: - x44 - x45 >= -1
 c90_neq45_46: x45 + x46 >= 1
 c91_neq45_46: - x45 - x46 >= -1
 c92_neq46_47: x46 + x47 >= 1
 c93_neq46_47: - x46 - x47 >= -1
 c94_neq47_48: x47 + x48 >= 1
 c95_neq47_48: - x47 - x48 >= -1
 c96_neq48_49: x48 + x49 >= 1
 c97_neq48_49: - x48 - x49 >= -1
 c98_neq49_50: x49 + x50 >= 1
 c99_neq49_50: - x49 - x50 >= -1
 c100_neq50_51: x50 + x51 >= 1
 c101_neq50_51: - x50 - x51 >= -1
 c102_neq51_52: x51 + x52 >= 1
 c103_neq51_52: - x51 - x52 >= -1
 c104_neq52_53: x52 + x53 >= 1
 c105_neq52_53: - x52 - x53 >= -1
 c106_neq53_54: x53 + x54 >= 1
 c107_neq53_54: - x53 - x54 >= -1
 c108_neq54_55: x54 + x55 >= 1
 c109_neq54_55: - x54 - x55 >= -1
 c110_neq55_56: x55 + x56 >= 1
 c111_neq55_56: - x55 - x56 >= -1
 c112_neq56_57: x56 + x57 >= 1
 c113_neq56_57: - x56 - x57 >= -1
 c114_neq57_58: x57 + x58 >= 1
 c115_neq57_58: - x57 - x58 >= -1
 c116_neq58_59: x58 + x59 >= 1
 c117_neq58_59: - x58 - x59 >= -1
 c118_neq59_60: x59 + x60 >= 1
 c119_neq59_60: - x59 - x60 >= -1
 c120_neq60_61: x60 + x61 >= 1
 c121_neq60_61: - x60 - x61 >= -1
 c122_neq61_62: x61 + x62 >= 1
 c123_neq61_62: - x61 - x62 >= -1
 c124_neq62_63: x62 + x63 >= 1
 c125_neq62_63: - x62 - x63 >= -1
 c126_neq63_64: x63 + x64 >= 1
 c127_neq63_64: - x63 - x64 >= -1
 c128_neq64_65: x64 + x65 >= 1
 c129_neq64_65: - x64 - x65 >= -1
 c130_neq65_66: x65 + x66 >= 1
 c131_neq65_66: - x65 - x66 >= -1
 c132_neq66_67: x66 + x67 >= 1
 c133_neq66_67: - x66 - x67 >= -1
 c134_neq67_68: x67 + x68 >= 1
 c135_neq67_68: - x67 - x68 >= -1
 c136_neq68_69: x68 + x69 >= 1
 c137_neq68_69: - x68 - x69 >= -1
 c138_neq69_70: x69 + x70 >= 1
 c139_neq69_70: - x69 - x70 >= -1
 c140_neq70_71: x70 + x71 >= 1
 c141_neq70_71: - x70 - x71 >= -1
 c142_neq71_72: x71 + x72 >= 1
 c143_neq71_72: - x71 - x72 >= -1
 c144_neq72_73: x72 + x73 >= 1
 c145_neq72_73: - x72 - x73 >= -1
 c146_neq73_74: x73 + x74 >= 1
 c147_neq73_74: - x73 - x74 >= -1
 c148_neq74_75: x74 + x75 >= 1
 c149_neq74_75: - x74 - x75 >= -1
 c150_neq75_76: x75 + x76 >= 1
 c151_neq75_76: - x75 - x76 >= -1
 c152_neq76_77: x76 + x77 >= 1
 c153_neq76_77: - x76 - x77 >= -1
 c154_neq77_78: x77 + x78 >= 1
 c155_neq77_78: - x77 - x78 >= -1
 c156_neq78_79: x78 + x79 >= 1
 c157_neq78_79: - x78 - x79 >= -1
 c158_neq79_80: x79 + x80 >= 1
 c159_neq79_80: - x79 - x80 >= -1
 c160_neq80_81: x80 + x81 >= 1
 c161_neq80_81: - x80 - x81 >= -1
 c162_neq81_82: x81 + x82 >= 1
 c163_neq81_82: - x81 - x82 >= -1
 c164_neq82_83: x82 + x83 >= 1
 c165_neq82_83: - x82 - x83 >= -1
 c166_neq83_84: x83 + x84 >= 1
 c167_neq83_84: - x83 - x84 >= -1
 c168_neq84_85: x84 + x85 >= 1
 c169_neq84_85: - x84 - x85 >= -1
 c170_neq85_86: x85 + x86 >= 1
 c171_neq85_86: - x85 - x86 >= -1
 c172_neq86_87: x86 + x87 >= 1
 c173_neq86_87: - x86 - x87 >= -1
 c174_neq87_88: x87 + x88 >= 1
 c175_neq87_88: - x87 - x88 >= -1
 c176_neq88_89: x88 + x89 >= 1
 c177_neq88_89: - x88 - x89 >= -1
 c178_neq89_90: x89 + x90 >= 1
 c179_neq89_90: - x89 - x90 >= -1
 c180_neq90_91: x90 + x91 >= 1
 c181_neq90_91: - x90 - x91 >= -1
 c182_neq91_92: x91 + x92 >= 1
 c183_neq91_92: - x91 - x92 >= -1
 c184_neq92_93: x92 + x93 >= 1
 c185_neq92_93: - x92 - x93 >= -1
 c186_neq93_94: x93 + x94 >= 1
 c187_neq93_94: - x93 - x94 >= -1
 c188_neq94_95: x94 + x95 >= 1
 c189_neq94_95: - x94 - x95 >= -1
 c190_neq95_96: x95 + x96 >= 1
 c191_neq95_96: - x95 - x96 >= -1
 c192_neq96_97: x96 + x97 >= 1
 c193_neq96_97: - x96 - x97 >= -1
 c194_neq97_98: x97 + x98 >= 1
 c195_neq97_98: - x97 - x98 >= -1
 c196_neq98_99: x98 + x99 >= 1
 c197_neq98_99: - x98 - x99 >= -1
 c198_neq99_100: x99 + x100 >= 1
 c199_neq99_100: - x99 - x100 >= -1
 c200_neq100_101: x100 + x101 >= 1
 c201_neq100_101: - x100 - x101 >= -1
 c202_neq101_102: x101 + x102 >= 1
 c203_neq101_102: - x101 - x102 >= -1
 c204_neq102_103: x102 + x103 >= 1
 c205_neq102_103: - x102 - x103 >= -1
 c206_neq103_104: x103 + x104 >= 1
 c207_neq103_104: - x103 - x104 >= -1
 c208_neq104_105: x104 + x105 >= 1
 c209_neq104_105: - x104 - x105 >= -1
 c210_neq105_106: x105 + x106 >= 1
 c211_neq105_106: - x105 - x106 >= -1
 c212_neq106_107: x106 + x107 >= 1
 c213_neq106_107: - x106 - x107 >= -1
 c214_neq107_108: x107 + x108 >= 1
 c215_neq107_108: - x107 - x108 >= -1
 c216_neq108_109: x108 + x109 >= 1
 c217_neq108_109: - x108 - x109 >= -1
 c218_neq109_110: x109 + x110 >= 1
 c219_neq109_110: - x109 - x110 >= -1
 c220_neq110_111: x110 + x111 >= 1
 c221_neq110_111: - x110 - x111 >= -1
 c222_neq111_112: x111 + x112 >= 1
 c223_neq111_112: - x111 - x112 >= -1
 c224_neq112_113: x112 + x113 >= 1
 c225_neq112_113: - x112 - x113 >= -1
 c226_neq113_114: x113 + x114 >= 1
 c227_neq113_114: - x113 - x114 >= -1
 c228_neq114_115: x114 + x115 >= 1
 c229_neq114_115: - x114 - x115 >= -1
 c230_neq115_116: x115 + x116 >= 1
 c231_neq115_116: - x115 - x116 >= -1
 c232_neq116_117: x116 + x117 >= 1
 c233_neq116_117: - x116 - x117 >= -1
 c234_neq117_118: x117 + x118 >= 1
 c235_neq117_118: - x117 - x118 >= -1
 c236_neq118_119: x118 + x119 >= 1
 c237_neq118_119: - x118 - x119 >= -1
 c238_neq119_120: x119 + x120 >= 1
 c239_neq119_120: - x119 - x120 >= -1
 c240_neq120_121: x120 + x121 >= 1
 c241_neq120_121: - x120 - x121 >= -1
 c242_neq121_122: x121 + x122 >= 1
 c243_neq121_122: - x121 - x122 >= -1
 c244_neq122_123: x122 + x123 >= 1
 c245_neq122_123: - x122 - x123 >= -1
 c246_neq123_124: x123 + x124 >= 1
 c247_neq123_124: - x123 - x124 >= -1
 c248_neq124_125: x124 + x125 >= 1
 c249_neq124_125: - x124 - x125 >= -1
 c250_neq125_126: x125 + x126 >= 1
 c251_neq125_126: - x125 - x126 >= -1
 c252_neq126_127: x126 + x127 >= 1
 c253_neq126_127: - x126 - x127 >= -1
 c254_neq127_128: x127 + x128 >= 1
 c255_neq127_128: - x127 - x128 >= -1
 c256_neq128_129: x128 + x129 >= 1
 c257_neq128_129: - x128 - x129 >= -1
 c258_neq129_130: x129 + x130 >= 1
 c259_neq129_130: - x129 - x130 >= -1
 c260_neq130_131: x130 + x131 >= 1
 c261_neq130_131: - x130 - x131 >= -1
 c262_neq131_132: x131 + x132 >= 1
 c263_neq131_132: - x131 - x132 >= -1
 c264_neq132_133: x132 + x133 >= 1
 c265_neq132_133: - x132 - x133 >= -1
 c266_neq133_134: x133 + x134 >= 1
 c267_neq133_134: - x133 - x134 >= -1
 c268_neq134_135: x134 + x135 >= 1
 c269_neq134_135: - x134 - x135 >= -1
 c270_neq135_136: x135 + x136 >= 1
 c271_neq135_136: - x135 - x136 >= -1
 c272_neq136_137: x136 + x137 >= 1
 c273_neq136_137: - x136 - x137 >= -1
 c274_neq137_138: x137 + x138 >= 1
 c275_neq137_138: - x137 - x138 >= -1
 c276_neq138_139: x138 + x139 >= 1
 c277_neq138_139: - x138 - x139 >= -1
 c278_neq139_140: x139 + x140 >= 1
 c279_neq139_140: - x139 - x140 >= -1
 c280_neq140_141: x140 + x141 >= 1
 c281_neq140_141: - x140 - x141 >= -1
 c282_neq141_142: x141 + x142 >= 1
 c283_neq141_142: - x141 - x142 >= -1
 c284_neq142_143: x142 + x143 >= 1
 c285_neq142_143: - x142 - x143 >= -1
 c286_neq143_144: x143 + x144 >= 1
 c287_neq143_144: - x143 - x144 >= -1
 c288_neq144_145: x144 + x145 >= 1
 c289_neq144_145: - x144 - x145 >= -1
 c290_neq145_146: x145 + x146 >= 1
 c291_neq145_146: - x145 - x146 >= -1
 c292_neq146_147: x146 + x147 >= 1
 c293_neq146_147: - x146 - x147 >= -1
 c294_neq147_148: x147 + x148 >= 1
 c295_neq147_148: - x147 - x148 >= -1
 c296_neq148_149: x148 + x149 >= 1
 c297_neq148_149: - x148 - x149 >= -1
 c298_neq149_150: x149 + x150 >= 1
 c299_neq149_150: - x149 - x150 >= -1
 c300_neq150_151: x150 + x151 >= 1
 c301_neq150_151: - x150 - x151 >= -1
 c302_neq151_152: x151 + x152 >= 1
 c303_neq151_152: - x151 - x152 >= -1
 c304_neq152_153: x152 + x153 >= 1
 c305_neq152_153: - x152 - x153 >= -1
 c306_neq153_154: x153 + x154 >= 1
 c307_neq153_154: - x153 - x154 >= -1
 c308_neq154_155: x154 + x155 >= 1
 c309_neq154_155: - x154 - x155 >= -1
 c310_neq155_156: x155 + x156 >= 1
 c311_neq155_156: - x155 - x156 >= -1
 c312_neq156_157: x156 + x157 >= 1
 c313_neq156_157: - x156 - x157 >= -1
 c314_neq157_158: x157 + x158 >= 1
 c315_neq157_158: - x157 - x158 >= -1
 c316_neq158_159: x158 + x159 >= 1
 c317_neq158_159: - x158 - x159 >= -1
 c318_neq159_160: x159 + x160 >= 1
 c319_neq159_160: - x159 - x160 >= -1
 c320_neq160_161: x160 + x161 >= 1
 c321_neq160_161: - x160 - x161 >= -1
 c322_neq161_162: x161 + x162 >= 1
 c323_neq161_162: - x161 - x162 >= -1
 c324_neq162_163: x162 + x163 >= 1
 c325_neq162_163: - x162 - x163 >= -1
 c326_neq163_164: x163 + x164 >= 1
 c327_neq163_164: - x163 - x164 >= -1
 c328_neq164_165: x164 + x165 >= 1
 c329_neq164_165: - x164 - x165 >= -1
 c330_neq165_166: x165 + x166 >= 1
 c331_neq165_166: - x165 - x166 >= -1
 c332_neq166_167: x166 + x167 >= 1
 c333_neq166_167: - x166 - x167 >= -1
 c334_neq167_168: x167 + x168 >= 1
 c335_neq167_168: - x167 - x168 >= -1
 c336_neq168_169: x168 + x169 >= 1
 c337_neq168_169: - x168 - x169 >= -1
 c338_neq169_170: x169 + x170 >= 1
 c339_neq169_170: - x169 - x170 >= -1
 c340_neq170_171: x170 + x171 >= 1
 c341_neq170_171: - x170 - x171 >= -1
 c342_neq171_172: x171 + x172 >= 1
 c343_neq171_172: - x171 - x172 >= -1
 c344_neq172_173: x172 + x173 >= 1
 c345_neq172_173: - x172 - x173 >= -1
 c346_neq173_174: x173 + x174 >= 1
 c347_neq173_174: - x173 - x174 >= -1
 c348_neq174_175: x174 + x175 >= 1
 c349_neq174_175: - x174 - x175 >= -1
 c350_neq175_176: x175 + x176 >= 1
 c351_neq175_176: - x175 - x176 >= -1
 c352_neq176_177: x176 + x177 >= 1
 c353_neq176_177: - x176 - x177 >= -1
 c354_neq177_178: x177 + x178 >= 1
 c355_neq177_178: - x177 - x178 >= -1
 c356_neq178_179: x178 + x179 >= 1
 c357_neq178_179: - x178 - x179 >= -1
 c358_neq179_180: x179 + x180 >= 1
 c359_neq179_180: - x179 - x180 >= -1
 c360_neq180_181: x180 + x181 >= 1
 c361_neq180_181: - x180 - x181 >= -1
 c362_neq181_182: x181 + x182 >= 1
 c363_neq181_182: - x181 - x182 >= -1
 c364_neq182_183: x182 + x183 >= 1
 c365_neq182_183: - x182 - x183 >= -1
 c366_neq183_184: x183 + x184 >= 1
 c367_neq183_184: - x183 - x184 >= -1
 c368_neq184_185: x184 + x185 >= 1
 c369_neq184_185: - x184 - x185 >= -1
 c370_neq185_186: x185 + x186 >= 1
 c371_neq185_186: - x185 - x186 >= -1
 c372_neq186_187: x186 + x187 >= 1
 c373_neq186_187: - x186 - x187 >= -1
 c374_neq187_188: x187 + x188 >= 1
 c375_neq187_188: - x187 - x188 >= -1
 c376_neq188_189: x188 + x189 >= 1
 c377_neq188_189: - x188 - x189 >= -1
 c378_neq189_190: x189 + x190 >= 1
 c379_neq189_190: - x189 - x190 >= -1
 c380_neq190_191: x190 + x191 >= 1
 c381_neq190_191: - x190 - x191 >= -1
 c382_neq191_192: x191 + x192 >= 1
 c383_neq191_192: - x191 - x192 >= -1
 c384_neq192_193: x192 + x193 >= 1
 c385_neq192_193: - x192 - x193 >= -1
 c386_neq193_194: x193 + x194 >= 1
 c387_neq193_194: - x193 - x194 >= -1
 c388_neq194_195: x194 + x195 >= 1
 c389_neq194_195: - x194 - x195 >= -1
 c390_neq195_196: x195 + x196 >= 1
 c391_neq195_196: - x195 - x196 >= -1
 c392_neq196_197: x196 + x197 >= 1
 c393_neq196_197: - x196 - x197 >= -1
 c394_neq197_198: x197 + x198 >= 1
 c395_neq197_198: - x197 - x198 >= -1
 c396_neq198_199: x198 + x199 >= 1
 c397_neq198_199: - x198 - x199 >= -1
 c398_neq199_200: x199 + x200 >= 1
 c399_neq199_200: - x199 - x200 >= -1
 c400_neq200_201: x200 + x201 >= 1
 c401_neq200_201: - x200 - x201 >= -1
 c402_neq201_202: x201 + x202 >= 1
 c403_neq201_202: - x201 - x202 >= -1
 c404_neq202_203: x202 + x203 >= 1
 c405_neq202_203: - x202 - x203 >= -1
 c406_neq203_204: x203 + x204 >= 1
 c407_neq203_204: - x203 - x204 >= -1
 c408_neq204_205: x204 + x205 >= 1
 c409_neq204_205: - x204 - x205 >= -1
 c410_neq205_206: x205 + x206 >= 1
 c411_neq205_206: - x205 - x206 >= -1
 c412_neq206_207: x206 + x207 >= 1
 c413_neq206_207: - x206 - x207 >= -1
 c414_neq207_208: x207 + x208 >= 1
 c415_neq207_208: - x207 - x208 >= -1
 c416_neq208_209: x208 + x209 >= 1
 c417_neq208_209: - x208 - x209 >= -1
 c418_neq209_210: x209 + x210 >= 1
 c419_neq209_210: - x209 - x210 >= -1
 c420_neq210_211: x210 + x211 >= 1
 c421_neq210_211: - x210 - x211 >= -1
 c422_neq211_212: x211 + x212 >= 1
 c423_neq211_212: - x211 - x212 >= -1
 c424_neq212_213: x212 + x213 >= 1
 c425_neq212_213: - x212 - x213 >= -1
 c426_neq213_214: x213 + x214 >= 1
 c427_neq213_214: - x213 - x214 >= -1
 c428_neq214_215: x214 + x215 >= 1
 c429_neq214_215: - x214 - x215 >= -1
 c430_neq215_216: x215 + x216 >= 1
 c431_neq215_216: - x215 - x216 >= -1
 c432_neq216_217: x216 + x217 >= 1
 c433_neq216_217: - x216 - x217 >= -1
 c434_neq217_218: x217 + x218 >= 1
 c435_neq217_218: - x217 - x218 >= -1
 c436_neq218_219: x218 + x219 >= 1
 c437_neq218_219: - x218 - x219 >= -1
 c438_neq219_220: x219 + x220 >= 1
 c439_neq219_220: - x219 - x220 >= -1
 c440_neq220_221: x220 + x221 >= 1
 c441_neq220_221: - x220 - x221 >= -1
 c442_neq221_222: x221 + x222 >= 1
 c443_neq221_222: - x221 - x222 >= -1
 c444_neq222_223: x222 + x223 >= 1
 c445_neq222_223: - x222 - x223 >= -1
 c446_neq223_224: x223 + x224 >= 1
 c447_neq223_224: - x223 - x224 >= -1
 c448_neq224_225: x224 + x225 >= 1
 c449_neq224_225: - x224 - x225 >= -1
 c450_neq225_226: x225 + x226 >= 1
 c451_neq225_226: - x225 - x226 >= -1
 c452_neq226_227: x226 + x227 >= 1
 c453_neq226_227: - x226 - x227 >= -1
 c454_neq227_228: x227 + x228 >= 1
 c455_neq227_228: - x227 - x228 >= -1
 c456_neq228_229: x228 + x229 >= 1
 c457_neq228_229: - x228 - x229 >= -1
 c458_neq229_230: x229 + x230 >= 1
 c459_neq229_230: - x229 - x230 >= -1
 c460_neq230_231: x230 + x231 >= 1
 c461_neq230_231: - x230 - x231 >= -1
 c462_neq231_232: x231 + x232 >= 1
 c463_neq231_232: - x231 - x232 >= -1
 c464_neq232_233: x232 + x233 >= 1
 c465_neq232_233: - x232 - x233 >= -1
 c466_neq233_234: x233 + x234 >= 1
 c467_neq233_234: - x233 - x234 >= -1
 c468_neq234_235: x234 + x235 >= 1
 c469_neq234_235: - x234 - x235 >= -1
 c470_neq235_236: x235 + x236 >= 1
 c471_neq235_236: - x235 - x236 >= -1
 c472_neq236_237: x236 + x237 >= 1
 c473_neq236_237: - x236 - x237 >= -1
 c474_neq237_238: x237 + x238 >= 1
 c475_neq237_238: - x237 - x238 >= -1
 c476_neq238_239: x238 + x239 >= 1
 c477_neq238_239: - x238 - x239 >= -1
 c478_neq239_240: x239 + x240 >= 1
 c479_neq239_240: - x239 - x240 >= -1
 c480_neq240_241: x240 + x241 >= 1
 c481_neq240_241: - x240 - x241 >= -1
 c482_neq241_242: x241 + x242 >= 1
 c483_neq241_242: - x241 - x242 >= -1
 c484_neq242_243: x242 + x243 >= 1
 c485_neq242_243: - x242 - x243 >= -1
 c486_neq243_244: x243 + x244 >= 1
 c487_neq243_244: - x243 - x244 >= -1
 c488_neq244_245: x244 + x245 >= 1
 c489_neq244_245: - x244 - x245 >= -1
 c490_neq245_246: x245 + x246 >= 1
 c491_neq245_246: - x245 - x246 >= -1
 c492_neq246_247: x246 + x247 >= 1
 c493_neq246_247: - x246 - x247 >= -1
 c494_neq247_248: x247 + x248 >= 1
 c495_neq247_248: - x247 - x248 >= -1
 c496_neq248_249: x248 + x249 >= 1
 c497_neq248_249: - x248 - x249 >= -1
 c498_neq249_250: x249 + x250 >= 1
 c499_neq249_250: - x249 - x250 >= -1
 c500_neq250_251: x250 + x251 >= 1
 c501_neq250_251: - x250 - x251 >= -1
 c502_neq251_252: x251 + x252 >= 1
 c503_neq251_252: - x251 - x252 >= -1
 c504_neq252_253: x252 + x253 >= 1
 c505_neq252_253: - x252 - x253 >= -1
 c506_neq253_254: x253 + x254 >= 1
 c507_neq253_254: - x253 - x254 >= -1
 c508_neq254_255: x254 + x255 >= 1
 c509_neq254_255: - x254 - x255 >= -1
 c510_neq255_256: x255 + x256 >= 1
 c511_neq255_256: - x255 - x256 >= -1
 c512_neq256_257: x256 + x257 >= 1
 c513_neq256_257: - x256 - x257 >= -1
 c514_neq257_258: x257 + x258 >= 1
 c515_neq257_258: - x257 - x258 >= -1
 c516_neq258_259: x258 + x259 >= 1
 c517_neq258_259: - x258 - x259 >= -1
 c518_neq259_260: x259 + x260 >= 1
 c519_neq259_260: - x259 - x260 >= -1
 c520_neq260_261: x260 + x261 >= 1
 c521_neq260_261: - x260 - x261 >= -1
 c522_neq261_262: x261 + x262 >= 1
 c523_neq261_262: - x261 - x262 >= -1
 c524_neq262_263: x262 + x263 >= 1
 c525_neq262_263: - x262 - x263 >= -1
 c526_neq263_264: x263 + x264 >= 1
 c527_neq263_264: - x263 - x264 >= -1
 c528_neq264_265: x264 + x265 >= 1
 c529_neq264_265: - x264 - x265 >= -1
 c530_neq265_266: x265 + x266 >= 1
 c531_neq265_266: - x265 - x266 >= -1
 c532_neq266_267: x266 + x267 >= 1
 c533_neq266_267: - x266 - x267 >= -1
 c534_neq267_268: x267 + x268 >= 1
 c535_neq267_268: - x267 - x268 >= -1
 c536_neq268_269: x268 + x269 >= 1
 c537_neq268_269: - x268 - x269 >= -1
 c538_neq269_270: x269 + x270 >= 1
 c539_neq269_270: - x269 - x270 >= -1
 c540_neq270_271: x270 + x271 >= 1
 c541_neq270_271: - x270 - x271 >= -1
 c542_neq271_272: x271 + x272 >= 1
 c543_neq271_272: - x271 - x272 >= -1
 c544_neq272_273: x272 + x273 >= 1
 c545_neq272_273: - x272 - x273 >= -1
 c546_neq273_274: x273 + x274 >= 1
 c547_neq273_274: - x273 - x274 >= -1
 c548_neq274_275: x274 + x275 >= 1
 c549_neq274_275: - x274 - x275 >= -1
 c550_neq275_276: x275 + x276 >= 1
 c551_neq275_276: - x275 - x276 >= -1
 c552_neq276_277: x276 + x277 >= 1
 c553_neq276_277: - x276 - x277 >= -1
 c554_neq277_278: x277 + x278 >= 1
 c555_neq277_278: - x277 - x278 >= -1
 c556_neq278_279: x278 + x279 >= 1
 c557_neq278_279: - x278 - x279 >= -1
 c558_neq279_280: x279 + x280 >= 1
 c559_neq279_280: - x279 - x280 >= -1
 c560_neq280_281: x280 + x281 >= 1
 c561_neq280_281: - x280 - x281 >= -1
 c562_neq281_282: x281 + x282 >= 1
 c563_neq281_282: - x281 - x282 >= -1
 c564_neq282_283: x282 + x283 >= 1
 c565_neq282_283: - x282 - x283 >= -1
 c566_neq283_284: x283 + x284 >= 1
 c567_neq283_284: - x283 - x284 >= -1
 c568_neq284_285: x284 + x285 >= 1
 c569_neq284_285: - x284 - x285 >= -1
 c570_neq285_286: x285 + x286 >= 1
 c571_neq285_286: - x285 - x286 >= -1
 c572_neq286_287: x286 + x287 >= 1
 c573_neq286_287: - x286 - x287 >= -1
 c574_neq287_288: x287 + x288 >= 1
 c575_neq287_288: - x287 - x288 >= -1
 c576_neq288_289: x288 + x289 >= 1
 c577_neq288_289: - x288 - x289 >= -1
 c578_neq289_290: x289 + x290 >= 1
 c579_neq289_290: - x289 - x290 >= -1
 c580_neq290_291: x290 + x291 >= 1
 c581_neq290_291: - x290 - x291 >= -1
 c582_neq291_292: x291 + x292 >= 1
 c583_neq291_292: - x291 - x292 >= -1
 c584_neq292_293: x292 + x293 >= 1
 c585_neq292_293: - x292 - x293 >= -1
 c586_neq293_294: x293 + x294 >= 1
 c587_neq293_294: - x293 - x294 >= -1
 c588_neq294_295: x294 + x295 >= 1
 c589_neq294_295: - x294 - x295 >= -1
 c590_neq295_296: x295 + x296 >= 1
 c591_neq295_296: - x295 - x296 >= -1
 c592_neq296_297: x296 + x297 >= 1
 c593_neq296_297: - x296 - x297 >= -1
 c594_neq297_298: x297 + x298 >= 1
 c595_neq297_298: - x297 - x298 >= -1
 c596_neq298_299: x298 + x299 >= 1
 c597_neq298_299: - x298 - x299 >= -1
 c598_neq299_300: x299 + x300 >= 1
 c599_neq299_300: - x299 - x300 >= -1
 c600_neq300_301: x300 + x301 >= 1
 c601_neq300_301: - x300 - x301 >= -1
 c602_neq301_302: x301 + x302 >= 1
 c603_neq301_302: - x301 - x302 >= -1
 c604_neq302_303: x302 + x303 >= 1
 c605_neq302_303: - x302 - x303 >= -1
 c606_neq303_304: x303 + x304 >= 1
 c607_neq303_304: - x303 - x304 >= -1
 c608_neq304_305: x304 + x305 >= 1
 c609_neq304_305: - x304 - x305 >= -1
 c610_neq305_306: x305 + x306 >= 1
 c611_neq305_306: - x305 - x306 >= -1
 c612_neq306_307: x306 + x307 >= 1
 c613_neq306_307: - x306 - x307 >= -1
 c614_neq307_308: x307 + x308 >= 1
 c615_neq307_308: - x307 - x308 >= -1
 c616_neq308_309: x308 + x309 >= 1
 c617_neq308_309: - x308 - x309 >= -1
 c618_neq309_310: x309 + x310 >= 1
 c619_neq309_310: - x309 - x310 >= -1
 c620_neq310_311: x310 + x311 >= 1
 c621_neq310_311: - x310 - x311 >= -1
 c622_neq311_312: x311 + x312 >= 1
 c623_neq311_312: - x311 - x312 >= -1
 c624_neq312_313: x312 + x313 >= 1
 c625_neq312_313: - x312 - x313 >= -1
 c626_neq313_314: x313 + x314 >= 1
 c627_neq313_314: - x313 - x314 >= -1
 c628_neq314_315: x314 + x315 >= 1
 c629_neq314_315: - x314 - x315 >= -1
 c630_neq315_316: x315 + x316 >= 1
 c631_neq315_316: - x315 - x316 >= -1
 c632_neq316_317: x316 + x317 >= 1
 c633_neq316_317: - x316 - x317 >= -1
 c634_neq317_318: x317 + x318 >= 1
 c635_neq317_318: - x317 - x318 >= -1
 c636_neq318_319: x318 + x319 >= 1
 c637_neq318_319: - x318 - x319 >= -1
 c638_neq319_320: x319 + x320 >= 1
 c639_neq319_320: - x319 - x320 >= -1
 c640_neq320_321: x320 + x321 >= 1
 c641_neq320_321: - x320 - x321 >= -1
 c642_neq321_322: x321 + x322 >= 1
 c643_neq321_322: - x321 - x322 >= -1
 c644_neq322_323: x322 + x323 >= 1
 c645_neq322_323: - x322 - x323 >= -1
 c646_neq323_324: x323 + x324 >= 1
 c647_neq323_324: - x323 - x324 >= -1
 c648_neq324_325: x324 + x325 >= 1
 c649_neq324_325: - x324 - x325 >= -1
 c650_neq325_326: x325 + x326 >= 1
 c651_neq325_326: - x325 - x326 >= -1
 c652_neq326_327: x326 + x327 >= 1
 c653_neq326_327: - x326 - x327 >= -1
 c654_neq327_328: x327 + x328 >= 1
 c655_neq327_328: - x327 - x328 >= -1
 c656_neq328_329: x328 + x329 >= 1
 c657_neq328_329: - x328 - x329 >= -1
 c658_neq329_330: x329 + x330 >= 1
 c659_neq329_330: - x329 - x330 >= -1
 c660_neq330_331: x330 + x331 >= 1
 c661_neq330_331: - x330 - x331 >= -1
 c662_neq331_332: x331 + x332 >= 1
 c663_neq331_332: - x331 - x332 >= -1
 c664_neq332_333: x332 + x333 >= 1
 c665_neq332_333: - x332 - x333 >= -1
 c666_neq333_334: x333 + x334 >= 1
 c667_neq333_334: - x333 - x334 >= -1
 c668_neq334_335: x334 + x335 >= 1
 c669_neq334_335: - x334 - x335 >= -1
 c670_neq335_336: x335 + x336 >= 1
 c671_neq335_336: - x335 - x336 >= -1
 c672_neq336_337: x336 + x337 >= 1
 c673_neq336_337: - x336 - x337 >= -1
 c674_neq337_338: x337 + x338 >= 1
 c675_neq337_338: - x337 - x338 >= -1
 c676_neq338_339: x338 + x339 >= 1
 c677_neq338_339: - x338 - x339 >= -1
 c678_neq339_340: x339 + x340 >= 1
 c679_neq339_340: - x339 - x340 >= -1
 c680_neq340_341: x340 + x341 >= 1
 c681_neq340_341: - x340 - x341 >= -1
 c682_neq341_342: x341 + x342 >= 1
 c683_neq341_342: - x341 - x342 >= -1
 c684_neq342_343: x342 + x343 >= 1
 c685_neq342_343: - x342 - x343 >= -1
 c686_neq343_344: x343 + x344 >= 1
 c687_neq343_344: - x343 - x344 >= -1
 c688_neq344_345: x344 + x345 >= 1
 c689_neq344_345: - x344 - x345 >= -1
 c690_neq345_346: x345 + x346 >= 1
 c691_neq345_346: - x345 - x346 >= -1
 c692_neq346_347: x346 + x347 >= 1
 c693_neq346_347: - x346 - x347 >= -1
 c694_neq347_348: x347 + x348 >= 1
 c695_neq347_348: - x347 - x348 >= -1
 c696_neq348_349: x348 + x349 >= 1
 c697_neq348_349: - x348 - x349 >= -1
 c698_neq349_350: x349 + x350 >= 1
 c699_neq349_350: - x349 - x350 >= -1
 c700_neq350_351: x350 + x351 >= 1
 c701_neq350_351: - x350 - x351 >= -1
 c702_neq351_352: x351 + x352 >= 1
 c703_neq351_352: - x351 - x352 >= -1
 c704_neq352_353: x352 + x353 >= 1
 c705_neq352_353: - x352 - x353 >= -1
 c706_neq353_354: x353 + x354 >= 1
 c707_neq353_354: - x353 - x354 >= -1
 c708_neq354_355: x354 + x355 >= 1
 c709_neq354_355: - x354 - x355 >= -1
 c710_neq355_356: x355 + x356 >= 1
 c711_neq355_356: - x355 - x356 >= -1
 c712_neq356_357: x356 + x357 >= 1
 c713_neq356_357: - x356 - x357 >= -1
 c714_neq357_358: x357 + x358 >= 1
 c715_neq357_358: - x357 - x358 >= -1
 c716_neq358_359: x358 + x359 >= 1
 c717_neq358_359: - x358 - x359 >= -1
 c718_neq359_360: x359 + x360 >= 1
 c719_neq359_360: - x359 - x360 >= -1
 c720_neq360_361: x360 + x361 >= 1
 c721_neq360_361: - x360 - x361 >= -1
 c722_neq361_362: x361 + x362 >= 1
 c723_neq361_362: - x361 - x362 >= -1
 c724_neq362_363: x362 + x363 >= 1
 c725_neq362_363: - x362 - x363 >= -1
 c726_neq363_364: x363 + x364 >= 1
 c727_neq363_364: - x363 - x364 >= -1
 c728_neq364_365: x364 + x365 >= 1
 c729_neq364_365: - x364 - x365 >= -1
 c730_neq365_366: x365 + x366 >= 1
 c731_neq365_366: - x365 - x366 >= -1
 c732_neq366_367: x366 + x367 >= 1
 c733_neq366_367: - x366 - x367 >= -1
 c734_neq367_368: x367 + x368 >= 1
 c735_neq367_368: - x367 - x368 >= -1
 c736_neq368_369: x368 + x369 >= 1
 c737_neq368_369: - x368 - x369 >= -1
 c738_neq369_370: x369 + x370 >= 1
 c739_neq369_370: - x369 - x370 >= -1
 c740_neq370_371: x370 + x371 >= 1
 c741_neq370_371: - x370 - x371 >= -1
 c742_neq371_372: x371 + x372 >= 1
 c743_neq371_372: - x371 - x372 >= -1
 c744_neq372_373: x372 + x373 >= 1
 c745_neq372_373: - x372 - x373 >= -1
 c746_neq373_374: x373 + x374 >= 1
 c747_neq373_374: - x373 - x374 >= -1
 c748_neq374_375: x374 + x375 >= 1
 c749_neq374_375: - x374 - x375 >= -1
 c750_neq375_376: x375 + x376 >= 1
 c751_neq375_376: - x375 - x376 >= -1
 c752_neq376_377: x376 + x377 >= 1
 c753_neq376_377: - x376 - x377 >= -1
 c754_neq377_378: x377 + x378 >= 1
 c755_neq377_378: - x377 - x378 >= -1
 c756_neq378_379: x378 + x379 >= 1
 c757_neq378_379: - x378 - x379 >= -1
 c758_neq379_380: x379 + x380 >= 1
 c759_neq379_380: - x379 - x380 >= -1
 c760_neq380_381: x380 + x381 >= 1
 c761_neq380_381: - x380 - x381 >= -1
 c762_neq381_382: x381 + x382 >= 1
 c763_neq381_382: - x381 - x382 >= -1
 c764_neq382_383: x382 + x383 >= 1
 c765_neq382_383: - x382 - x383 >= -1
 c766_neq383_384: x383 + x384 >= 1
 c767_neq383_384: - x383 - x384 >= -1
 c768_neq384_385: x384 + x385 >= 1
 c769_neq384_385: - x384 - x385 >= -1
 c770_neq385_386: x385 + x386 >= 1
 c771_neq385_386: - x385 - x386 >= -1
 c772_neq386_387: x386 + x387 >= 1
 c773_neq386_387: - x386 - x387 >= -1
 c774_neq387_388: x387 + x388 >= 1
 c775_neq387_388: - x387 - x388 >= -1
 c776_neq388_389: x388 + x389 >= 1
 c777_neq388_389: - x388 - x389 >= -1
 c778_neq389_390: x389 + x390 >= 1
 c779_neq389_390: - x389 - x390 >= -1
 c780_neq390_391: x390 + x391 >= 1
 c781_neq390_391: - x390 - x391 >= -1
 c782_neq391_392: x391 + x392 >= 1
 c783_neq391_392: - x391 - x392 >= -1
 c784_neq392_393: x392 + x393 >= 1
 c785_neq392_393: - x392 - x393 >= -1
 c786_neq393_394: x393 + x394 >= 1
 c787_neq393_394: - x393 - x394 >= -1
 c788_neq394_395: x394 + x395 >= 1
 c789_neq394_395: - x394 - x395 >= -1
 c790_neq395_396: x395 + x396 >= 1
 c791_neq395_396: - x395 - x396 >= -1
 c792_neq396_397: x396 + x397 >= 1
 c793_neq396_397: - x396 - x397 >= -1
 c794_neq397_398: x397 + x398 >= 1
 c795_neq397_398: - x397 - x398 >= -1
 c796_neq398_399: x398 + x399 >= 1
 c797_neq398_399: - x398 - x399 >= -1
 c798_neq399_400: x399 + x400 >= 1
 c799_neq399_400: - x399 - x400 >= -1
 c800_neq400_401: x400 + x401 >= 1
 c801_neq400_401: - x400 - x401 >= -1
 c802_neq401_402: x401 + x402 >= 1
 c803_neq401_402: - x401 - x402 >= -1
 c804_neq402_403: x402 + x403 >= 1
 c805_neq402_403: - x402 - x403 >= -1
 c806_neq403_404: x403 + x404 >= 1
 c807_neq403_404: - x403 - x404 >= -1
 c808_neq404_405: x404 + x405 >= 1
 c809_neq404_405: - x404 - x405 >= -1
 c810_neq405_406: x405 + x406 >= 1
 c811_neq405_406: - x405 - x406 >= -1
 c812_neq406_407: x406 + x407 >= 1
 c813_neq406_407: - x406 - x407 >= -1
 c814_neq407_408: x407 + x408 >= 1
 c815_neq407_408: - x407 - x408 >= -1
 c816_neq408_409: x408 + x409 >= 1
 c817_neq408_409: - x408 - x409 >= -1
 c818_neq409_410: x409 + x410 >= 1
 c819_neq409_410: - x409 - x410 >= -1
 c820_neq410_411: x410 + x411 >= 1
 c821_neq410_411: - x410 - x411 >= -1
 c822_neq411_412: x411 + x412 >= 1
 c823_neq411_412: - x411 - x412 >= -1
 c824_neq412_413: x412 + x413 >= 1
 c825_neq412_413: - x412 - x413 >= -1
 c826_neq413_414: x413 + x414 >= 1
 c827_neq413_414: - x413 - x414 >= -1
 c828_neq414_415: x414 + x415 >= 1
 c829_neq414_415: - x414 - x415 >= -1
 c830_neq415_416: x415 + x416 >= 1
 c831_neq415_416: - x415 - x416 >= -1
 c832_neq416_417: x416 + x417 >= 1
 c833_neq416_417: - x416 - x417 >= -1
 c834_neq417_418: x417 + x418 >= 1
 c835_neq417_418: - x417 - x418 >= -1
 c836_neq418_419: x418 + x419 >= 1
 c837_neq418_419: - x418 - x419 >= -1
 c838_neq419_420: x419 + x420 >= 1
 c839_neq419_420: - x419 - x420 >= -1
 c840_neq420_421: x420 + x421 >= 1
 c841_neq420_421: - x420 - x421 >= -1
 c842_neq421_422: x421 + x422 >= 1
 c843_neq421_422: - x421 - x422 >= -1
 c844_neq422_423: x422 + x423 >= 1
 c845_neq422_423: - x422 - x423 >= -1
 c846_neq423_424: x423 + x424 >= 1
 c847_neq423_424: - x423 - x424 >= -1
 c848_neq424_425: x424 + x425 >= 1
 c849_neq424_425: - x424 - x425 >= -1
 c850_neq425_426: x425 + x426 >= 1
 c851_neq425_426: - x425 - x426 >= -1
 c852_neq426_427: x426 + x427 >= 1
 c853_neq426_427: - x426 - x427 >= -1
 c854_neq427_428: x427 + x428 >= 1
 c855_neq427_428: - x427 - x428 >= -1
 c856_neq428_429: x428 + x429 >= 1
 c857_neq428_429: - x428 - x429 >= -1
 c858_neq429_430: x429 + x430 >= 1
 c859_neq429_430: - x429 - x430 >= -1
 c860_neq430_431: x430 + x431 >= 1
 c861_neq430_431: - x430 - x431 >= -1
 c862_neq431_432: x431 + x432 >= 1
 c863_neq431_432: - x431 - x432 >= -1
 c864_neq432_433: x432 + x433 >= 1
 c865_neq432_433: - x432 - x433 >= -1
 c866_neq433_434: x433 + x434 >= 1
 c867_neq433_434: - x433 - x434 >= -1
 c868_neq434_435: x434 + x435 >= 1
 c869_neq434_435: - x434 - x435 >= -1
 c870_neq435_436: x435 + x436 >= 1
 c871_neq435_436: - x435 - x436 >= -1
 c872_neq436_437: x436 + x437 >= 1
 c873_neq436_437: - x436 - x437 >= -1
 c874_neq437_438: x437 + x438 >= 1
 c875_neq437_438: - x437 - x438 >= -1
 c876_neq438_439: x438 + x439 >= 1
 c877_neq438_439: - x438 - x439 >= -1
 c878_neq439_440: x439 + x440 >= 1
 c879_neq439_440: - x439 - x440 >= -1
 c880_neq440_441: x440 + x441 >= 1
 c881_neq440_441: - x440 - x441 >= -1
 c882_neq441_442: x441 + x442 >= 1
 c883_neq441_442: - x441 - x442 >= -1
 c884_neq442_443: x442 + x443 >= 1
 c885_neq442_443: - x442 - x443 >= -1
 c886_neq443_444: x443 + x444 >= 1
 c887_neq443_444: - x443 - x444 >= -1
 c888_neq444_445: x444 + x445 >= 1
 c889_neq444_445: - x444 - x445 >= -1
 c890_neq445_446: x445 + x446 >= 1
 c891_neq445_446: - x445 - x446 >= -1
 c892_neq446_447: x446 + x447 >= 1
 c893_neq446_447: - x446 - x447 >= -1
 c894_neq447_448: x447 + x448 >= 1
 c895_neq447_448: - x447 - x448 >= -1
 c896_neq448_449: x448 + x449 >= 1
 c897_neq448_449: - x448 - x449 >= -1
 c898_neq449_450: x449 + x450 >= 1
 c899_neq449_450: - x449 - x450 >= -1
 c900_neq450_451: x450 + x451 >= 1
 c901_neq450_451: - x450 - x451 >= -1
 c902_neq451_452: x451 + x452 >= 1
 c903_neq451_452: - x451 - x452 >= -1
 c904_neq452_453: x452 + x453 >= 1
 c905_neq452_453: - x452 - x453 >= -1
 c906_neq453_454: x453 + x454 >= 1
 c907_neq453_454: - x453 - x454 >= -1
 c908_neq454_455: x454 + x455 >= 1
 c909_neq454_455: - x454 - x455 >= -1
 c910_neq455_456: x455 + x456 >= 1
 c911_neq455_456: - x455 - x456 >= -1
 c912_neq456_457: x456 + x457 >= 1
 c913_neq456_457: - x456 - x457 >= -1
 c914_neq457_458: x457 + x458 >= 1
 c915_neq457_458: - x457 - x458 >= -1
 c916_neq458_459: x458 + x459 >= 1
 c917_neq458_459: - x458 - x459 >= -1
 c918_neq459_460: x459 + x460 >= 1
 c919_neq459_460: - x459 - x460 >= -1
 c920_neq460_461: x460 + x461 >= 1
 c921_neq460_461: - x460 - x461 >= -1
 c922_neq461_462: x461 + x462 >= 1
 c923_neq461_462: - x461 - x462 >= -1
 c924_neq462_463: x462 + x463 >= 1
 c925_neq462_463: - x462 - x463 >= -1
 c926_neq463_464: x463 + x464 >= 1
 c927_neq463_464: - x463 - x464 >= -1
 c928_neq464_465: x464 + x465 >= 1
 c929_neq464_465: - x464 - x465 >= -1
 c930_neq465_466: x465 + x466 >= 1
 c931_neq465_466: - x465 - x466 >= -1
 c932_neq466_467: x466 + x467 >= 1
 c933_neq466_467: - x466 - x467 >= -1
 c934_neq467_468: x467 + x468 >= 1
 c935_neq467_468: - x467 - x468 >= -1
 c936_neq468_469: x468 + x469 >= 1
 c937_neq468_469: - x468 - x469 >= -1
 c938_neq469_470: x469 + x470 >= 1
 c939_neq469_470: - x469 - x470 >= -1
 c940_neq470_471: x470 + x471 >= 1
 c941_neq470_471: - x470 - x471 >= -1
 c942_neq471_472: x471 + x472 >= 1
 c943_neq471_472: - x471 - x472 >= -1
 c944_neq472_473: x472 + x473 >= 1
 c945_neq472_473: - x472 - x473 >= -1
 c946_neq473_474: x473 + x474 >= 1
 c947_neq473_474: - x473 - x474 >= -1
 c948_neq474_475: x474 + x475 >= 1
 c949_neq474_475: - x474 - x475 >= -1
 c950_neq475_476: x475 + x476 >= 1
 c951_neq475_476: - x475 - x476 >= -1
 c952_neq476_477: x476 + x477 >= 1
 c953_neq476_477: - x476 - x477 >= -1
 c954_neq477_478: x477 + x478 >= 1
 c955_neq477_478: - x477 - x478 >= -1
 c956_neq478_479: x478 + x479 >= 1
 c957_neq478_479: - x478 - x479 >= -1
 c958_neq479_480: x479 + x480 >= 1
 c959_neq479_480: - x479 - x480 >= -1
 c960_neq480_481: x480 + x481 >= 1
 c961_neq480_481: - x480 - x481 >= -1
 c962_neq481_482: x481 + x482 >= 1
 c963_neq481_482: - x481 - x482 >= -1
 c964_neq482_483: x482 + x483 >= 1
 c965_neq482_483: - x482 - x483 >= -1
 c966_neq483_484: x483 + x484 >= 1
 c967_neq483_484: - x483 - x484 >= -1
 c968_neq484_485: x484 + x485 >= 1
 c969_neq484_485: - x484 - x485 >= -1
 c970_neq485_486: x485 + x486 >= 1
 c971_neq485_486: - x485 - x486 >= -1
 c972_neq486_487: x486 + x487 >= 1
 c973_neq486_487: - x486 - x487 >= -1
 c974_neq487_488: x487 + x488 >= 1
 c975_neq487_488: - x487 - x488 >= -1
 c976_neq488_489: x488 + x489 >= 1
 c977_neq488_489: - x488 - x489 >= -1
 c978_neq489_490: x489 + x490 >= 1
 c979_neq489_490: - x489 - x490 >= -1
 c980_neq490_491: x490 + x491 >= 1
 c981_neq490_491: - x490 - x491 >= -1
 c982_neq491_492: x491 + x492 >= 1
 c983_neq491_492: - x491 - x492 >= -1
 c984_neq492_493: x492 + x493 >= 1
 c985_neq492_493: - x492 - x493 >= -1
 c986_neq493_494: x493 + x494 >= 1
 c987_neq493_494: - x493 - x494 >= -1
 c988_neq494_495: x494 + x495 >= 1
 c989_neq494_495: - x494 - x495 >= -1
 c990_neq495_496: x495 + x496 >= 1
 c991_neq495_496: - x495 - x496 >= -1
 c992_neq496_497: x496 + x497 >= 1
 c993_neq496_497: - x496 - x497 >= -1
 c994_neq497_498: x497 + x498 >= 1
 c995_neq497_498: - x497 - x498 >= -1
 c996_neq498_499: x498 + x499 >= 1
 c997_neq498_499: - x498 - x499 >= -1
 c998_neq499_500: x499 + x500 >= 1
 c999_neq499_500: - x499 - x500 >= -1
 c1000_neq500_501: x500 + x501 >= 1
 c1001_neq500_501: - x500 - x501 >= -1
 c1002_neq501_502: x501 + x502 >= 1
 c1003_neq501_502: - x501 - x502 >= -1
 c1004_neq502_503: x502 + x503 >= 1
 c1005_neq502_503: - x502 - x503 >= -1
 c1006_neq503_504: x503 + x504 >= 1
 c1007_neq503_504: - x503 - x504 >= -1
 c1008_neq504_505: x504 + x505 >= 1
 c1009_neq504_505: - x504 - x505 >= -1
 c1010_neq505_506: x505 + x506 >= 1
 c1011_neq505_506: - x505 - x506 >= -1
 c1012_neq506_507: x506 + x507 >= 1
 c1013_neq506_507: - x506 - x507 >= -1
 c1014_neq507_508: x507 + x508 >= 1
 c1015_neq507_508: - x507 - x508 >= -1
 c1016_neq508_509: x508 + x509 >= 1
 c1017_neq508_509: - x508 - x509 >= -1
 c1018_neq509_510: x509 + x510 >= 1
 c1019_neq509_510: - x509 - x510 >= -1
 c1020_neq510_511: x510 + x511 >= 1
 c1021_neq510_511: - x510 - x511 >= -1
 c1022_neq511_512: x511 + x512 >= 1
 c1023_neq511_512: - x511 - x512 >= -1
 c1024_neq512_513: x512 + x513 >= 1
 c1025_neq512_513: - x512 - x513 >= -1
 c1026_neq513_514: x513 + x514 >= 1
 c1027_neq513_514: - x513 - x514 >= -1
 c1028_neq514_515: x514 + x515 >= 1
 c1029_neq514_515: - x514 - x515 >= -1
 c1030_neq515_516: x515 + x516 >= 1
 c1031_neq515_516: - x515 - x516 >= -1
 c1032_neq516_517: x516 + x517 >= 1
 c1033_neq516_517: - x516 - x517 >= -1
 c1034_neq517_518: x517 + x518 >= 1
 c1035_neq517_518: - x517 - x518 >= -1
 c1036_neq518_519: x518 + x519 >= 1
 c1037_neq518_519: - x518 - x519 >= -1
 c1038_neq519_520: x519 + x520 >= 1
 c1039_neq519_520: - x519 - x520 >= -1
 c1040_neq520_521: x520 + x521 >= 1
 c1041_neq520_521: - x520 - x521 >= -1
 c1042_neq521_522: x521 + x522 >= 1
 c1043_neq521_522: - x521 - x522 >= -1
 c1044_neq522_523: x522 + x523 >= 1
 c1045_neq522_523: - x522 - x523 >= -1
 c1046_neq523_524: x523 + x524 >= 1
 c1047_neq523_524: - x523 - x524 >= -1
 c1048_neq524_525: x524 + x525 >= 1
 c1049_neq524_525: - x524 - x525 >= -1
 c1050_neq525_526: x525 + x526 >= 1
 c1051_neq525_526: - x525 - x526 >= -1
 c1052_neq526_527: x526 + x527 >= 1
 c1053_neq526_527: - x526 - x527 >= -1
 c1054_neq527_528: x527 + x528 >= 1
 c1055_neq527_528: - x527 - x528 >= -1
 c1056_neq528_529: x528 + x529 >= 1
 c1057_neq528_529: - x528 - x529 >= -1
 c1058_neq529_530: x529 + x530 >= 1
 c1059_neq529_530: - x529 - x530 >= -1
 c1060_neq530_531: x530 + x531 >= 1
 c1061_neq530_531: - x530 - x531 >= -1
 c1062_neq531_532: x531 + x532 >= 1
 c1063_neq531_532: - x531 - x532 >= -1
 c1064_neq532_533: x532 + x533 >= 1
 c1065_neq532_533: - x532 - x533 >= -1
 c1066_neq533_534: x533 + x534 >= 1
 c1067_neq533_534: - x533 - x534 >= -1
 c1068_neq534_535: x534 + x535 >= 1
 c1069_neq534_535: - x534 - x535 >= -1
 c1070_neq535_536: x535 + x536 >= 1
 c1071_neq535_536: - x535 - x536 >= -1
 c1072_neq536_537: x536 + x537 >= 1
 c1073_neq536_537: - x536 - x537 >= -1
 c1074_neq537_538: x537 + x538 >= 1
 c1075_neq537_538: - x537 - x538 >= -1
 c1076_neq538_539: x538 + x539 >= 1
 c1077_neq538_539: - x538 - x539 >= -1
 c1078_neq539_540: x539 + x540 >= 1
 c1079_neq539_540: - x539 - x540 >= -1
 c1080_neq540_541: x540 + x541 >= 1
 c1081_neq540_541: - x540 - x541 >= -1
 c1082_neq541_542: x541 + x542 >= 1
 c1083_neq541_542: - x541 - x542 >= -1
 c1084_neq542_543: x542 + x543 >= 1
 c1085_neq542_543: - x542 - x543 >= -1
 c1086_neq543_544: x543 + x544 >= 1
 c1087_neq543_544: - x543 - x544 >= -1
 c1088_neq544_545: x544 + x545 >= 1
 c1089_neq544_545: - x544 - x545 >= -1
 c1090_neq545_546: x545 + x546 >= 1
 c1091_neq545_546: - x545 - x546 >= -1
 c1092_neq546_547: x546 + x547 >= 1
 c1093_neq546_547: - x546 - x547 >= -1
 c1094_neq547_548: x547 + x548 >= 1
 c1095_neq547_548: - x547 - x548 >= -1
 c1096_neq548_549: x548 + x549 >= 1
 c1097_neq548_549: - x548 - x549 >= -1
 c1098_neq549_550: x549 + x550 >= 1
 c1099_neq549_550: - x549 - x550 >= -1
 c1100_neq550_551: x550 + x551 >= 1
 c1101_neq550_551: - x550 - x551 >= -1
 c1102_neq551_552: x551 + x552 >= 1
 c1103_neq551_552: - x551 - x552 >= -1
 c1104_neq552_553: x552 + x553 >= 1
 c1105_neq552_553: - x552 - x553 >= -1
 c1106_neq553_554: x553 + x554 >= 1
 c1107_neq553_554: - x553 - x554 >= -1
 c1108_neq554_555: x554 + x555 >= 1
 c1109_neq554_555: - x554 - x555 >= -1
 c1110_neq555_556: x555 + x556 >= 1
 c1111_neq555_556: - x555 - x556 >= -1
 c1112_neq556_557: x556 + x557 >= 1
 c1113_neq556_557: - x556 - x557 >= -1
 c1114_neq557_558: x557 + x558 >= 1
 c1115_neq557_558: - x557 - x558 >= -1
 c1116_neq558_559: x558 + x559 >= 1
 c1117_neq558_559: - x558 - x559 >= -1
 c1118_neq559_560: x559 + x560 >= 1
 c1119_neq559_560: - x559 - x560 >= -1
 c1120_neq560_561: x560 + x561 >= 1
 c1121_neq560_561: - x560 - x561 >= -1
 c1122_neq561_562: x561 + x562 >= 1
 c1123_neq561_562: - x561 - x562 >= -1
 c1124_neq562_563: x562 + x563 >= 1
 c1125_neq562_563: - x562 - x563 >= -1
 c1126_neq563_564: x563 + x564 >= 1
 c1127_neq563_564: - x563 - x564 >= -1
 c1128_neq564_565: x564 + x565 >= 1
 c1129_neq564_565: - x564 - x565 >= -1
 c1130_neq565_566: x565 + x566 >= 1
 c1131_neq565_566: - x565 - x566 >= -1
 c1132_neq566_567: x566 + x567 >= 1
 c1133_neq566_567: - x566 - x567 >= -1
 c1134_neq567_568: x567 + x568 >= 1
 c1135_neq567_568: - x567 - x568 >= -1
 c1136_neq568_569: x568 + x569 >= 1
 c1137_neq568_569: - x568 - x569 >= -1
 c1138_neq569_570: x569 + x570 >= 1
 c1139_neq569_570: - x569 - x570 >= -1
 c1140_neq570_571: x570 + x571 >= 1
 c1141_neq570_571: - x570 - x571 >= -1
 c1142_neq571_572: x571 + x572 >= 1
 c1143_neq571_572: - x571 - x572 >= -1
 c1144_neq572_573: x572 + x573 >= 1
 c1145_neq572_573: - x572 - x573 >= -1
 c1146_neq573_574: x573 + x574 >= 1
 c1147_neq573_574: - x573 - x574 >= -1
 c1148_neq574_575: x574 + x575 >= 1
 c1149_neq574_575: - x574 - x575 >= -1
 c1150_neq575_576: x575 + x576 >= 1
 c1151_neq575_576: - x575 - x576 >= -1
 c1152_neq576_577: x576 + x577 >= 1
 c1153_neq576_577: - x576 - x577 >= -1
 c1154_neq577_578: x577 + x578 >= 1
 c1155_neq577_578: - x577 - x578 >= -1
 c1156_neq578_579: x578 + x579 >= 1
 c1157_neq578_579: - x578 - x579 >= -1
 c1158_neq579_580: x579 + x580 >= 1
 c1159_neq579_580: - x579 - x580 >= -1
 c1160_neq580_581: x580 + x581 >= 1
 c1161_neq580_581: - x580 - x581 >= -1
 c1162_neq581_582: x581 + x582 >= 1
 c1163_neq581_582: - x581 - x582 >= -1
 c1164_neq582_583: x582 + x583 >= 1
 c1165_neq582_583: - x582 - x583 >= -1
 c1166_neq583_584: x583 + x584 >= 1
 c1167_neq583_584: - x583 - x584 >= -1
 c1168_neq584_585: x584 + x585 >= 1
 c1169_neq584_585: - x584 - x585 >= -1
 c1170_neq585_586: x585 + x586 >= 1
 c1171_neq585_586: - x585 - x586 >= -1
 c1172_neq586_587: x586 + x587 >= 1
 c1173_neq586_587: - x586 - x587 >= -1
 c1174_neq587_588: x587 + x588 >= 1
 c1175_neq587_588: - x587 - x588 >= -1
 c1176_neq588_589: x588 + x589 >= 1
 c1177_neq588_589: - x588 - x589 >= -1
 c1178_neq589_590: x589 + x590 >= 1
 c1179_neq589_590: - x589 - x590 >= -1
 c1180_neq590_591: x590 + x591 >= 1
 c1181_neq590_591: - x590 - x591 >= -1
 c1182_neq591_592: x591 + x592 >= 1
 c1183_neq591_592: - x591 - x592 >= -1
 c1184_neq592_593: x592 + x593 >= 1
 c1185_neq592_593: - x592 - x593 >= -1
 c1186_neq593_594: x593 + x594 >= 1
 c1187_neq593_594: - x593 - x594 >= -1
 c1188_neq594_595: x594 + x595 >= 1
 c1189_neq594_595: - x594 - x595 >= -1
 c1190_neq595_596: x595 + x596 >= 1
 c1191_neq595_596: - x595 - x596 >= -1
 c1192_neq596_597: x596 + x597 >= 1
 c1193_neq596_597: - x596 - x597 >= -1
 c1194_neq597_598: x597 + x598 >= 1
 c1195_neq597_598: - x597 - x598 >= -1
 c1196_neq598_599: x598 + x599 >= 1
 c1197_neq598_599: - x598 - x599 >= -1
 c1198_neq599_600: x599 + x600 >= 1
 c1199_neq599_600: - x599 - x600 >= -1
 c1200_neq600_601: x600 + x601 >= 1
 c1201_neq600_601: - x600 - x601 >= -1
 c1202_neq601_602: x601 + x602 >= 1
 c1203_neq601_602: - x601 - x602 >= -1
 c1204_neq602_603: x602 + x603 >= 1
 c1205_neq602_603: - x602 - x603 >= -1
 c1206_neq603_604: x603 + x604 >= 1
 c1207_neq603_604: - x603 - x604 >= -1
 c1208_neq604_605: x604 + x605 >= 1
 c1209_neq604_605: - x604 - x605 >= -1
 c1210_neq605_606: x605 + x606 >= 1
 c1211_neq605_606: - x605 - x606 >= -1
 c1212_neq606_607: x606 + x607 >= 1
 c1213_neq606_607: - x606 - x607 >= -1
 c1214_neq607_608: x607 + x608 >= 1
 c1215_neq607_608: - x607 - x608 >= -1
 c1216_neq608_609: x608 + x609 >= 1
 c1217_neq608_609: - x608 - x609 >= -1
 c1218_neq609_610: x609 + x610 >= 1
 c1219_neq609_610: - x609 - x610 >= -1
 c1220_neq610_611: x610 + x611 >= 1
 c1221_neq610_611: - x610 - x611 >= -1
 c1222_neq611_612: x611 + x612 >= 1
 c1223_neq611_612: - x611 - x612 >= -1
 c1224_neq612_613: x612 + x613 >= 1
 c1225_neq612_613: - x612 - x613 >= -1
 c1226_neq613_614: x613 + x614 >= 1
 c1227_neq613_614: - x613 - x614 >= -1
 c1228_neq614_615: x614 + x615 >= 1
 c1229_neq614_615: - x614 - x615 >= -1
 c1230_neq615_616: x615 + x616 >= 1
 c1231_neq615_616: - x615 - x616 >= -1
 c1232_neq616_617: x616 + x617 >= 1
 c1233_neq616_617: - x616 - x617 >= -1
 c1234_neq617_618: x617 + x618 >= 1
 c1235_neq617_618: - x617 - x618 >= -1
 c1236_neq618_619: x618 + x619 >= 1
 c1237_neq618_619: - x618 - x619 >= -1
 c1238_neq619_620: x619 + x620 >= 1
 c1239_neq619_620: - x619 - x620 >= -1
 c1240_neq620_621: x620 + x621 >= 1
 c1241_neq620_621: - x620 - x621 >= -1
 c1242_neq621_622: x621 + x622 >= 1
 c1243_neq621_622: - x621 - x622 >= -1
 c1244_neq622_623: x622 + x623 >= 1
 c1245_neq622_623: - x622 - x623 >= -1
 c1246_neq623_624: x623 + x624 >= 1
 c1247_neq623_624: - x623 - x624 >= -1
 c1248_neq624_625: x624 + x625 >= 1
 c1249_neq624_625: - x624 - x625 >= -1
 c1250_neq625_626: x625 + x626 >= 1
 c1251_neq625_626: - x625 - x626 >= -1
 c1252_neq626_627: x626 + x627 >= 1
 c1253_neq626_627: - x626 - x627 >= -1
 c1254_neq627_628: x627 + x628 >= 1
 c1255_neq627_628: - x627 - x628 >= -1
 c1256_neq628_629: x628 + x629 >= 1
 c1257_neq628_629: - x628 - x629 >= -1
 c1258_neq629_630: x629 + x630 >= 1
 c1259_neq629_630: - x629 - x630 >= -1
 c1260_neq630_631: x630 + x631 >= 1
 c1261_neq630_631: - x630 - x631 >= -1
 c1262_neq631_632: x631 + x632 >= 1
 c1263_neq631_632: - x631 - x632 >= -1
 c1264_neq632_633: x632 + x633 >= 1
 c1265_neq632_633: - x632 - x633 >= -1
 c1266_neq633_634: x633 + x634 >= 1
 c1267_neq633_634: - x633 - x634 >= -1
 c1268_neq634_635: x634 + x635 >= 1
 c1269_neq634_635: - x634 - x635 >= -1
 c1270_neq635_636: x635 + x636 >= 1
 c1271_neq635_636: - x635 - x636 >= -1
 c1272_neq636_637: x636 + x637 >= 1
 c1273_neq636_637: - x636 - x637 >= -1
 c1274_neq637_638: x637 + x638 >= 1
 c1275_neq637_638: - x637 - x638 >= -1
 c1276_neq638_639: x638 + x639 >= 1
 c1277_neq638_639: - x638 - x639 >= -1
 c1278_neq639_640: x639 + x640 >= 1
 c1279_neq639_640: - x639 - x640 >= -1
 c1280_neq640_641: x640 + x641 >= 1
 c1281_neq640_641: - x640 - x641 >= -1
 c1282_neq641_642: x641 + x642 >= 1
 c1283_neq641_642: - x641 - x642 >= -1
 c1284_neq642_643: x642 + x643 >= 1
 c1285_neq642_643: - x642 - x643 >= -1
 c1286_neq643_644: x643 + x644 >= 1
 c1287_neq643_644: - x643 - x644 >= -1
 c1288_neq644_645: x644 + x645 >= 1
 c1289_neq644_645: - x644 - x645 >= -1
 c1290_neq645_646: x645 + x646 >= 1
 c1291_neq645_646: - x645 - x646 >= -1
 c1292_neq646_647: x646 + x647 >= 1
 c1293_neq646_647: - x646 - x647 >= -1
 c1294_neq647_648: x647 + x648 >= 1
 c1295_neq647_648: - x647 - x648 >= -1
 c1296_neq648_649: x648 + x649 >= 1
 c1297_neq648_649: - x648 - x649 >= -1
 c1298_neq649_650: x649 + x650 >= 1
 c1299_neq649_650: - x649 - x650 >= -1
 c1300_neq650_651: x650 + x651 >= 1
 c1301_neq650_651: - x650 - x651 >= -1
 c1302_neq651_652: x651 + x652 >= 1
 c1303_neq651_652: - x651 - x652 >= -1
 c1304_neq652_653: x652 + x653 >= 1
 c1305_neq652_653: - x652 - x653 >= -1
 c1306_neq653_654: x653 + x654 >= 1
 c1307_neq653_654: - x653 - x654 >= -1
 c1308_neq654_655: x654 + x655 >= 1
 c1309_neq654_655: - x654 - x655 >= -1
 c1310_neq655_656: x655 + x656 >= 1
 c1311_neq655_656: - x655 - x656 >= -1
 c1312_neq656_657: x656 + x657 >= 1
 c1313_neq656_657: - x656 - x657 >= -1
 c1314_neq657_658: x657 + x658 >= 1
 c1315_neq657_658: - x657 - x658 >= -1
 c1316_neq658_659: x658 + x659 >= 1
 c1317_neq658_659: - x658 - x659 >= -1
 c1318_neq659_660: x659 + x660 >= 1
 c1319_neq659_660: - x659 - x660 >= -1
 c1320_neq660_661: x660 + x661 >= 1
 c1321_neq660_661: - x660 - x661 >= -1
 c1322_neq661_662: x661 + x662 >= 1
 c1323_neq661_662: - x661 - x662 >= -1
 c1324_neq662_663: x662 + x663 >= 1
 c1325_neq662_663: - x662 - x663 >= -1
 c1326_neq663_664: x663 + x664 >= 1
 c1327_neq663_664: - x663 - x664 >= -1
 c1328_neq664_665: x664 + x665 >= 1
 c1329_neq664_665: - x664 - x665 >= -1
 c1330_neq665_666: x665 + x666 >= 1
 c1331_neq665_666: - x665 - x666 >= -1
 c1332_neq666_667: x666 + x667 >= 1
 c1333_neq666_667: - x666 - x667 >= -1
 c1334_neq667_668: x667 + x668 >= 1
 c1335_neq667_668: - x667 - x668 >= -1
 c1336_neq668_669: x668 + x669 >= 1
 c1337_neq668_669: - x668 - x669 >= -1
 c1338_neq669_670: x669 + x670 >= 1
 c1339_neq669_670: - x669 - x670 >= -1
 c1340_neq670_671: x670 + x671 >= 1
 c1341_neq670_671: - x670 - x671 >= -1
 c1342_neq671_672: x671 + x672 >= 1
 c1343_neq671_672: - x671 - x672 >= -1
 c1344_neq672_673: x672 + x673 >= 1
 c1345_neq672_673: - x672 - x673 >= -1
 c1346_neq673_674: x673 + x674 >= 1
 c1347_neq673_674: - x673 - x674 >= -1
 c1348_neq674_675: x674 + x675 >= 1
 c1349_neq674_675: - x674 - x675 >= -1
 c1350_neq675_676: x675 + x676 >= 1
 c1351_neq675_676: - x675 - x676 >= -1
 c1352_neq676_677: x676 + x677 >= 1
 c1353_neq676_677: - x676 - x677 >= -1
 c1354_neq677_678: x677 + x678 >= 1
 c1355_neq677_678: - x677 - x678 >= -1
 c1356_neq678_679: x678 + x679 >= 1
 c1357_neq678_679: - x678 - x679 >= -1
 c1358_neq679_680: x679 + x680 >= 1
 c1359_neq679_680: - x679 - x680 >= -1
 c1360_neq680_681: x680 + x681 >= 1
 c1361_neq680_681: - x680 - x681 >= -1
 c1362_neq681_682: x681 + x682 >= 1
 c1363_neq681_682: - x681 - x682 >= -1
 c1364_neq682_683: x682 + x683 >= 1
 c1365_neq682_683: - x682 - x683 >= -1
 c1366_neq683_684: x683 + x684 >= 1
 c1367_neq683_684: - x683 - x684 >= -1
 c1368_neq684_685: x684 + x685 >= 1
 c1369_neq684_685: - x684 - x685 >= -1
 c1370_neq685_686: x685 + x686 >= 1
 c1371_neq685_686: - x685 - x686 >= -1
 c1372_neq686_687: x686 + x687 >= 1
 c1373_neq686_687: - x686 - x687 >= -1
 c1374_neq687_688: x687 + x688 >= 1
 c1375_neq687_688: - x687 - x688 >= -1
 c1376_neq688_689: x688 + x689 >= 1
 c1377_neq688_689: - x688 - x689 >= -1
 c1378_neq689_690: x689 + x690 >= 1
 c1379_neq689_690: - x689 - x690 >= -1
 c1380_neq690_691: x690 + x691 >= 1
 c1381_neq690_691: - x690 - x691 >= -1
 c1382_neq691_692: x691 + x692 >= 1
 c1383_neq691_692: - x691 - x692 >= -1
 c1384_neq692_693: x692 + x693 >= 1
 c1385_neq692_693: - x692 - x693 >= -1
 c1386_neq693_694: x693 + x694 >= 1
 c1387_neq693_694: - x693 - x694 >= -1
 c1388_neq694_695: x694 + x695 >= 1
 c1389_neq694_695: - x694 - x695 >= -1
 c1390_neq695_696: x695 + x696 >= 1
 c1391_neq695_696: - x695 - x696 >= -1
 c1392_neq696_697: x696 + x697 >= 1
 c1393_neq696_697: - x696 - x697 >= -1
 c1394_neq697_698: x697 + x698 >= 1
 c1395_neq697_698: - x697 - x698 >= -1
 c1396_neq698_699: x698 + x699 >= 1
 c1397_neq698_699: - x698 - x699 >= -1
 c1398_neq699_700: x699 + x700 >= 1
 c1399_neq699_700: - x699 - x700 >= -1
 c1400_neq700_701: x700 + x701 >= 1
 c1401_neq700_701: - x700 - x701 >= -1
 c1402_neq701_702: x701 + x702 >= 1
 c1403_neq701_702: - x701 - x702 >= -1
 c1404_neq702_703: x702 + x703 >= 1
 c1405_neq702_703: - x702 - x703 >= -1
 c1406_neq703_704: x703 + x704 >= 1
 c1407_neq703_704: - x703 - x704 >= -1
 c1408_neq704_705: x704 + x705 >= 1
 c1409_neq704_705: - x704 - x705 >= -1
 c1410_neq705_706: x705 + x706 >= 1
 c1411_neq705_706: - x705 - x706 >= -1
 c1412_neq706_707: x706 + x707 >= 1
 c1413_neq706_707: - x706 - x707 >= -1
 c1414_neq707_708: x707 + x708 >= 1
 c1415_neq707_708: - x707 - x708 >= -1
 c1416_neq708_709: x708 + x709 >= 1
 c1417_neq708_709: - x708 - x709 >= -1
 c1418_neq709_710: x709 + x710 >= 1
 c1419_neq709_710: - x709 - x710 >= -1
 c1420_neq710_711: x710 + x711 >= 1
 c1421_neq710_711: - x710 - x711 >= -1
 c1422_neq711_712: x711 + x712 >= 1
 c1423_neq711_712: - x711 - x712 >= -1
 c1424_neq712_713: x712 + x713 >= 1
 c1425_neq712_713: - x712 - x713 >= -1
 c1426_neq713_714: x713 + x714 >= 1
 c1427_neq713_714: - x713 - x714 >= -1
 c1428_neq714_715: x714 + x715 >= 1
 c1429_neq714_715: - x714 - x715 >= -1
 c1430_neq715_716: x715 + x716 >= 1
 c1431_neq715_716: - x715 - x716 >= -1
 c1432_neq716_717: x716 + x717 >= 1
 c1433_neq716_717: - x716 - x717 >= -1
 c1434_neq717_718: x717 + x718 >= 1
 c1435_neq717_718: - x717 - x718 >= -1
 c1436_neq718_719: x718 + x719 >= 1
 c1437_neq718_719: - x718 - x719 >= -1
 c1438_neq719_720: x719 + x720 >= 1
 c1439_neq719_720: - x719 - x720 >= -1
 c1440_neq720_721: x720 + x721 >= 1
 c1441_neq720_721: - x720 - x721 >= -1
 c1442_neq721_722: x721 + x722 >= 1
 c1443_neq721_722: - x721 - x722 >= -1
 c1444_neq722_723: x722 + x723 >= 1
 c1445_neq722_723: - x722 - x723 >= -1
 c1446_neq723_724: x723 + x724 >= 1
 c1447_neq723_724: - x723 - x724 >= -1
 c1448_neq724_725: x724 + x725 >= 1
 c1449_neq724_725: - x724 - x725 >= -1
 c1450_neq725_726: x725 + x726 >= 1
 c1451_neq725_726: - x725 - x726 >= -1
 c1452_neq726_727: x726 + x727 >= 1
 c1453_neq726_727: - x726 - x727 >= -1
 c1454_neq727_728: x727 + x728 >= 1
 c1455_neq727_728: - x727 - x728 >= -1
 c1456_neq728_729: x728 + x729 >= 1
 c1457_neq728_729: - x728 - x729 >= -1
 c1458_neq729_730: x729 + x730 >= 1
 c1459_neq729_730: - x729 - x730 >= -1
 c1460_neq730_731: x730 + x731 >= 1
 c1461_neq730_731: - x730 - x731 >= -1
 c1462_neq731_732: x731 + x732 >= 1
 c1463_neq731_732: - x731 - x732 >= -1
 c1464_neq732_733: x732 + x733 >= 1
 c1465_neq732_733: - x732 - x733 >= -1
 c1466_neq733_734: x733 + x734 >= 1
 c1467_neq733_734: - x733 - x734 >= -1
 c1468_neq734_735: x734 + x735 >= 1
 c1469_neq734_735: - x734 - x735 >= -1
 c1470_neq735_736: x735 + x736 >= 1
 c1471_neq735_736: - x735 - x736 >= -1
 c1472_neq736_737: x736 + x737 >= 1
 c1473_neq736_737: - x736 - x737 >= -1
 c1474_neq737_738: x737 + x738 >= 1
 c1475_neq737_738: - x737 - x738 >= -1
 c1476_neq738_739: x738 + x739 >= 1
 c1477_neq738_739: - x738 - x739 >= -1
 c1478_neq739_740: x739 + x740 >= 1
 c1479_neq739_740: - x739 - x740 >= -1
 c1480_neq740_741: x740 + x741 >= 1
 c1481_neq740_741: - x740 - x741 >= -1
 c1482_neq741_742: x741 + x742 >= 1
 c1483_neq741_742: - x741 - x742 >= -1
 c1484_neq742_743: x742 + x743 >= 1
 c1485_neq742_743: - x742 - x743 >= -1
 c1486_neq743_744: x743 + x744 >= 1
 c1487_neq743_744: - x743 - x744 >= -1
 c1488_neq744_745: x744 + x745 >= 1
 c1489_neq744_745: - x744 - x745 >= -1
 c1490_neq745_746: x745 + x746 >= 1
 c1491_neq745_746: - x745 - x746 >= -1
 c1492_neq746_747: x746 + x747 >= 1
 c1493_neq746_747: - x746 - x747 >= -1
 c1494_neq747_748: x747 + x748 >= 1
 c1495_neq747_748: - x747 - x748 >= -1
 c1496_neq748_749: x748 + x749 >= 1
 c1497_neq748_749: - x748 - x749 >= -1
 c1498_neq749_750: x749 + x750 >= 1
 c1499_neq749_750: - x749 - x750 >= -1
 c1500_neq750_751: x750 + x751 >= 1
 c1501_neq750_751: - x750 - x751 >= -1
 c1502_neq751_752: x751 + x752 >= 1
 c1503_neq751_752: - x751 - x752 >= -1
 c1504_neq752_753: x752 + x753 >= 1
 c1505_neq752_753: - x752 - x753 >= -1
 c1506_neq753_754: x753 + x754 >= 1
 c1507_neq753_754: - x753 - x754 >= -1
 c1508_neq754_755: x754 + x755 >= 1
 c1509_neq754_755: - x754 - x755 >= -1
 c1510_neq755_756: x755 + x756 >= 1
 c1511_neq755_756: - x755 - x756 >= -1
 c1512_neq756_757: x756 + x757 >= 1
 c1513_neq756_757: - x756 - x757 >= -1
 c1514_neq757_758: x757 + x758 >= 1
 c1515_neq757_758: - x757 - x758 >= -1
 c1516_neq758_759: x758 + x759 >= 1
 c1517_neq758_759: - x758 - x759 >= -1
 c1518_neq759_760: x759 + x760 >= 1
 c1519_neq759_760: - x759 - x760 >= -1
 c1520_neq760_761: x760 + x761 >= 1
 c1521_neq760_761: - x760 - x761 >= -1
 c1522_neq761_762: x761 + x762 >= 1
 c1523_neq761_762: - x761 - x762 >= -1
 c1524_neq762_763: x762 + x763 >= 1
 c1525_neq762_763: - x762 - x763 >= -1
 c1526_neq763_764: x763 + x764 >= 1
 c1527_neq763_764: - x763 - x764 >= -1
 c1528_neq764_765: x764 + x765 >= 1
 c1529_neq764_765: - x764 - x765 >= -1
 c1530_neq765_766: x765 + x766 >= 1
 c1531_neq765_766: - x765 - x766 >= -1
 c1532_neq766_767: x766 + x767 >= 1
 c1533_neq766_767: - x766 - x767 >= -1
 c1534_neq767_768: x767 + x768 >= 1
 c1535_neq767_768: - x767 - x768 >= -1
 c1536_neq768_769: x768 + x769 >= 1
 c1537_neq768_769: - x768 - x769 >= -1
 c1538_neq769_770: x769 + x770 >= 1
 c1539_neq769_770: - x769 - x770 >= -1
 c1540_neq770_771: x770 + x771 >= 1
 c1541_neq770_771: - x770 - x771 >= -1
 c1542_neq771_772: x771 + x772 >= 1
 c1543_neq771_772: - x771 - x772 >= -1
 c1544_neq772_773: x772 + x773 >= 1
 c1545_neq772_773: - x772 - x773 >= -1
 c1546_neq773_774: x773 + x774 >= 1
 c1547_neq773_774: - x773 - x774 >= -1
 c1548_neq774_775: x774 + x775 >= 1
 c1549_neq774_775: - x774 - x775 >= -1
 c1550_neq775_776: x775 + x776 >= 1
 c1551_neq775_776: - x775 - x776 >= -1
 c1552_neq776_777: x776 + x777 >= 1
 c1553_neq776_777: - x776 - x777 >= -1
 c1554_neq777_778: x777 + x778 >= 1
 c1555_neq777_778: - x777 - x778 >= -1
 c1556_neq778_779: x778 + x779 >= 1
 c1557_neq778_779: - x778 - x779 >= -1
 c1558_neq779_780: x779 + x780 >= 1
 c1559_neq779_780: - x779 - x780 >= -1
 c1560_neq780_781: x780 + x781 >= 1
 c1561_neq780_781: - x780 - x781 >= -1
 c1562_neq781_782: x781 + x782 >= 1
 c1563_neq781_782: - x781 - x782 >= -1
 c1564_neq782_783: x782 + x783 >= 1
 c1565_neq782_783: - x782 - x783 >= -1
 c1566_neq783_784: x783 + x784 >= 1
 c1567_neq783_784: - x783 - x784 >= -1
 c1568_neq784_785: x784 + x785 >= 1
 c1569_neq784_785: - x784 - x785 >= -1
 c1570_neq785_786: x785 + x786 >= 1
 c1571_neq785_786: - x785 - x786 >= -1
 c1572_neq786_787: x786 + x787 >= 1
 c1573_neq786_787: - x786 - x787 >= -1
 c1574_neq787_788: x787 + x788 >= 1
 c1575_neq787_788: - x787 - x788 >= -1
 c1576_neq788_789: x788 + x789 >= 1
 c1577_neq788_789: - x788 - x789 >= -1
 c1578_neq789_790: x789 + x790 >= 1
 c1579_neq789_790: - x789 - x790 >= -1
 c1580_neq790_791: x790 + x791 >= 1
 c1581_neq790_791: - x790 - x791 >= -1
 c1582_neq791_792: x791 + x792 >= 1
 c1583_neq791_792: - x791 - x792 >= -1
 c1584_neq792_793: x792 + x793 >= 1
 c1585_neq792_793: - x792 - x793 >= -1
 c1586_neq793_794: x793 + x794 >= 1
 c1587_neq793_794: - x793 - x794 >= -1
 c1588_neq794_795: x794 + x795 >= 1
 c1589_neq794_795: - x794 - x795 >= -1
 c1590_neq795_796: x795 + x796 >= 1
 c1591_neq795_796: - x795 - x796 >= -1
 c1592_neq796_797: x796 + x797 >= 1
 c1593_neq796_797: - x796 - x797 >= -1
 c1594_neq797_798: x797 + x798 >= 1
 c1595_neq797_798: - x797 - x798 >= -1
 c1596_neq798_799: x798 + x799 >= 1
 c1597_neq798_799: - x798 - x799 >= -1
 c1598_neq799_800: x799 + x800 >= 1
 c1599_neq799_800: - x799 - x800 >= -1
 c1600_neq800_801: x800 + x801 >= 1
 c1601_neq800_801: - x800 - x801 >= -1
 c1602_neq801_802: x801 + x802 >= 1
 c1603_neq801_802: - x801 - x802 >= -1
 c1604_neq802_803: x802 + x803 >= 1
 c1605_neq802_803: - x802 - x803 >= -1
 c1606_neq803_804: x803 + x804 >= 1
 c1607_neq803_804: - x803 - x804 >= -1
 c1608_neq804_805: x804 + x805 >= 1
 c1609_neq804_805: - x804 - x805 >= -1
 c1610_neq805_806: x805 + x806 >= 1
 c1611_neq805_806: - x805 - x806 >= -1
 c1612_neq806_807: x806 + x807 >= 1
 c1613_neq806_807: - x806 - x807 >= -1
 c1614_neq807_808: x807 + x808 >= 1
 c1615_neq807_808: - x807 - x808 >= -1
 c1616_neq808_809: x808 + x809 >= 1
 c1617_neq808_809: - x808 - x809 >= -1
 c1618_neq809_810: x809 + x810 >= 1
 c1619_neq809_810: - x809 - x810 >= -1
 c1620_neq810_811: x810 + x811 >= 1
 c1621_neq810_811: - x810 - x811 >= -1
 c1622_neq811_812: x811 + x812 >= 1
 c1623_neq811_812: - x811 - x812 >= -1
 c1624_neq812_813: x812 + x813 >= 1
 c1625_neq812_813: - x812 - x813 >= -1
 c1626_neq813_814: x813 + x814 >= 1
 c1627_neq813_814: - x813 - x814 >= -1
 c1628_neq814_815: x814 + x815 >= 1
 c1629_neq814_815: - x814 - x815 >= -1
 c1630_neq815_816: x815 + x816 >= 1
 c1631_neq815_816: - x815 - x816 >= -1
 c1632_neq816_817: x816 + x817 >= 1
 c1633_neq816_817: - x816 - x817 >= -1
 c1634_neq817_818: x817 + x818 >= 1
 c1635_neq817_818: - x817 - x818 >= -1
 c1636_neq818_819: x818 + x819 >= 1
 c1637_neq818_819: - x818 - x819 >= -1
 c1638_neq819_820: x819 + x820 >= 1
 c1639_neq819_820: - x819 - x820 >= -1
 c1640_neq820_821: x820 + x821 >= 1
 c1641_neq820_821: - x820 - x821 >= -1
 c1642_neq821_822: x821 + x822 >= 1
 c1643_neq821_822: - x821 - x822 >= -1
 c1644_neq822_823: x822 + x823 >= 1
 c1645_neq822_823: - x822 - x823 >= -1
 c1646_neq823_824: x823 + x824 >= 1
 c1647_neq823_824: - x823 - x824 >= -1
 c1648_neq824_825: x824 + x825 >= 1
 c1649_neq824_825: - x824 - x825 >= -1
 c1650_neq825_826: x825 + x826 >= 1
 c1651_neq825_826: - x825 - x826 >= -1
 c1652_neq826_827: x826 + x827 >= 1
 c1653_neq826_827: - x826 - x827 >= -1
 c1654_neq827_828: x827 + x828 >= 1
 c1655_neq827_828: - x827 - x828 >= -1
 c1656_neq828_829: x828 + x829 >= 1
 c1657_neq828_829: - x828 - x829 >= -1
 c1658_neq829_830: x829 + x830 >= 1
 c1659_neq829_830: - x829 - x830 >= -1
 c1660_neq830_831: x830 + x831 >= 1
 c1661_neq830_831: - x830 - x831 >= -1
 c1662_neq831_832: x831 + x832 >= 1
 c1663_neq831_832: - x831 - x832 >= -1
 c1664_neq832_833: x832 + x833 >= 1
 c1665_neq832_833: - x832 - x833 >= -1
 c1666_neq833_834: x833 + x834 >= 1
 c1667_neq833_834: - x833 - x834 >= -1
 c1668_neq834_835: x834 + x835 >= 1
 c1669_neq834_835: - x834 - x835 >= -1
 c1670_neq835_836: x835 + x836 >= 1
 c1671_neq835_836: - x835 - x836 >= -1
 c1672_neq836_837: x836 + x837 >= 1
 c1673_neq836_837: - x836 - x837 >= -1
 c1674_neq837_838: x837 + x838 >= 1
 c1675_neq837_838: - x837 - x838 >= -1
 c1676_neq838_839: x838 + x839 >= 1
 c1677_neq838_839: - x838 - x839 >= -1
 c1678_neq839_840: x839 + x840 >= 1
 c1679_neq839_840: - x839 - x840 >= -1
 c1680_neq840_841: x840 + x841 >= 1
 c1681_neq840_841: - x840 - x841 >= -1
 c1682_neq841_842: x841 + x842 >= 1
 c1683_neq841_842: - x841 - x842 >= -1
 c1684_neq842_843: x842 + x843 >= 1
 c1685_neq842_843: - x842 - x843 >= -1
 c1686_neq843_844: x843 + x844 >= 1
 c1687_neq843_844: - x843 - x844 >= -1
 c1688_neq844_845: x844 + x845 >= 1
 c1689_neq844_845: - x844 - x845 >= -1
 c1690_neq845_846: x845 + x846 >= 1
 c1691_neq845_846: - x845 - x846 >= -1
 c1692_neq846_847: x846 + x847 >= 1
 c1693_neq846_847: - x846 - x847 >= -1
 c1694_neq847_848: x847 + x848 >= 1
 c1695_neq847_848: - x847 - x848 >= -1
 c1696_neq848_849: x848 + x849 >= 1
 c1697_neq848_849: - x848 - x849 >= -1
 c1698_neq849_850: x849 + x850 >= 1
 c1699_neq849_850: - x849 - x850 >= -1
 c1700_neq850_851: x850 + x851 >= 1
 c1701_neq850_851: - x850 - x851 >= -1
 c1702_neq851_852: x851 + x852 >= 1
 c1703_neq851_852: - x851 - x852 >= -1
 c1704_neq852_853: x852 + x853 >= 1
 c1705_neq852_853: - x852 - x853 >= -1
 c1706_neq853_854: x853 + x854 >= 1
 c1707_neq853_854: - x853 - x854 >= -1
 c1708_neq854_855: x854 + x855 >= 1
 c1709_neq854_855: - x854 - x855 >= -1
 c1710_neq855_856: x855 + x856 >= 1
 c1711_neq855_856: - x855 - x856 >= -1
 c1712_neq856_857: x856 + x857 >= 1
 c1713_neq856_857: - x856 - x857 >= -1
 c1714_neq857_858: x857 + x858 >= 1
 c1715_neq857_858: - x857 - x858 >= -1
 c1716_neq858_859: x858 + x859 >= 1
 c1717_neq858_859: - x858 - x859 >= -1
 c1718_neq859_860: x859 + x860 >= 1
 c1719_neq859_860: - x859 - x860 >= -1
 c1720_neq860_861: x860 + x861 >= 1
 c1721_neq860_861: - x860 - x861 >= -1
 c1722_neq861_862: x861 + x862 >= 1
 c1723_neq861_862: - x861 - x862 >= -1
 c1724_neq862_863: x862 + x863 >= 1
 c1725_neq862_863: - x862 - x863 >= -1
 c1726_neq863_864: x863 + x864 >= 1
 c1727_neq863_864: - x863 - x864 >= -1
 c1728_neq864_865: x864 + x865 >= 1
 c1729_neq864_865: - x864 - x865 >= -1
 c1730_neq865_866: x865 + x866 >= 1
 c1731_neq865_866: - x865 - x866 >= -1
 c1732_neq866_867: x866 + x867 >= 1
 c1733_neq866_867: - x866 - x867 >= -1
 c1734_neq867_868: x867 + x868 >= 1
 c1735_neq867_868: - x867 - x868 >= -1
 c1736_neq868_869: x868 + x869 >= 1
 c1737_neq868_869: - x868 - x869 >= -1
 c1738_neq869_870: x869 + x870 >= 1
 c1739_neq869_870: - x869 - x870 >= -1
 c1740_neq870_871: x870 + x871 >= 1
 c1741_neq870_871: - x870 - x871 >= -1
 c1742_neq871_872: x871 + x872 >= 1
 c1743_neq871_872: - x871 - x872 >= -1
 c1744_neq872_873: x872 + x873 >= 1
 c1745_neq872_873: - x872 - x873 >= -1
 c1746_neq873_874: x873 + x874 >= 1
 c1747_neq873_874: - x873 - x874 >= -1
 c1748_neq874_875: x874 + x875 >= 1
 c1749_neq874_875: - x874 - x875 >= -1
 c1750_neq875_876: x875 + x876 >= 1
 c1751_neq875_876: - x875 - x876 >= -1
 c1752_neq876_877: x876 + x877 >= 1
 c1753_neq876_877: - x876 - x877 >= -1
 c1754_neq877_878: x877 + x878 >= 1
 c1755_neq877_878: - x877 - x878 >= -1
 c1756_neq878_879: x878 + x879 >= 1
 c1757_neq878_879: - x878 - x879 >= -1
 c1758_neq879_880: x879 + x880 >= 1
 c1759_neq879_880: - x879 - x880 >= -1
 c1760_neq880_881: x880 + x881 >= 1
 c1761_neq880_881: - x880 - x881 >= -1
 c1762_neq881_882: x881 + x882 >= 1
 c1763_neq881_882: - x881 - x882 >= -1
 c1764_neq882_883: x882 + x883 >= 1
 c1765_neq882_883: - x882 - x883 >= -1
 c1766_neq883_884: x883 + x884 >= 1
 c1767_neq883_884: - x883 - x884 >= -1
 c1768_neq884_885: x884 + x885 >= 1
 c1769_neq884_885: - x884 - x885 >= -1
 c1770_neq885_886: x885 + x886 >= 1
 c1771_neq885_886: - x885 - x886 >= -1
 c1772_neq886_887: x886 + x887 >= 1
 c1773_neq886_887: - x886 - x887 >= -1
 c1774_neq887_888: x887 + x888 >= 1
 c1775_neq887_888: - x887 - x888 >= -1
 c1776_neq888_889: x888 + x889 >= 1
 c1777_neq888_889: - x888 - x889 >= -1
 c1778_neq889_890: x889 + x890 >= 1
 c1779_neq889_890: - x889 - x890 >= -1
 c1780_neq890_891: x890 + x891 >= 1
 c1781_neq890_891: - x890 - x891 >= -1
 c1782_neq891_892: x891 + x892 >= 1
 c1783_neq891_892: - x891 - x892 >= -1
 c1784_neq892_893: x892 + x893 >= 1
 c1785_neq892_893: - x892 - x893 >= -1
 c1786_neq893_894: x893 + x894 >= 1
 c1787_neq893_894: - x893 - x894 >= -1
 c1788_neq894_895: x894 + x895 >= 1
 c1789_neq894_895: - x894 - x895 >= -1
 c1790_neq895_896: x895 + x896 >= 1
 c1791_neq895_896: - x895 - x896 >= -1
 c1792_neq896_897: x896 + x897 >= 1
 c1793_neq896_897: - x896 - x897 >= -1
 c1794_neq897_898: x897 + x898 >= 1
 c1795_neq897_898: - x897 - x898 >= -1
 c1796_neq898_899: x898 + x899 >= 1
 c1797_neq898_899: - x898 - x899 >= -1
 c1798_neq899_900: x899 + x900 >= 1
 c1799_neq899_900: - x899 - x900 >= -1
 c1800_neq900_901: x900 + x901 >= 1
 c1801_neq900_901: - x900 - x901 >= -1
 c1802_neq901_902: x901 + x902 >= 1
 c1803_neq901_902: - x901 - x902 >= -1
 c1804_neq902_903: x902 + x903 >= 1
 c1805_neq902_903: - x902 - x903 >= -1
 c1806_neq903_904: x903 + x904 >= 1
 c1807_neq903_904: - x903 - x904 >= -1
 c1808_neq904_905: x904 + x905 >= 1
 c1809_neq904_905: - x904 - x905 >= -1
 c1810_neq905_906: x905 + x906 >= 1
 c1811_neq905_906: - x905 - x906 >= -1
 c1812_neq906_907: x906 + x907 >= 1
 c1813_neq906_907: - x906 - x907 >= -1
 c1814_neq907_908: x907 + x908 >= 1
 c1815_neq907_908: - x907 - x908 >= -1
 c1816_neq908_909: x908 + x909 >= 1
 c1817_neq908_909: - x908 - x909 >= -1
 c1818_neq909_910: x909 + x910 >= 1
 c1819_neq909_910: - x909 - x910 >= -1
 c1820_neq910_911: x910 + x911 >= 1
 c1821_neq910_911: - x910 - x911 >= -1
 c1822_neq911_912: x911 + x912 >= 1
 c1823_neq911_912: - x911 - x912 >= -1
 c1824_neq912_913: x912 + x913 >= 1
 c1825_neq912_913: - x912 - x913 >= -1
 c1826_neq913_914: x913 + x914 >= 1
 c1827_neq913_914: - x913 - x914 >= -1
 c1828_neq914_915: x914 + x915 >= 1
 c1829_neq914_915: - x914 - x915 >= -1
 c1830_neq915_916: x915 + x916 >= 1
 c1831_neq915_916: - x915 - x916 >= -1
 c1832_neq916_917: x916 + x917 >= 1
 c1833_neq916_917: - x916 - x917 >= -1
 c1834_neq917_918: x917 + x918 >= 1
 c1835_neq917_918: - x917 - x918 >= -1
 c1836_neq918_919: x918 + x919 >= 1
 c1837_neq918_919: - x918 - x919 >= -1
 c1838_neq919_920: x919 + x920 >= 1
 c1839_neq919_920: - x919 - x920 >= -1
 c1840_neq920_921: x920 + x921 >= 1
 c1841_neq920_921: - x920 - x921 >= -1
 c1842_neq921_922: x921 + x922 >= 1
 c1843_neq921_922: - x921 - x922 >= -1
 c1844_neq922_923: x922 + x923 >= 1
 c1845_neq922_923: - x922 - x923 >= -1
 c1846_neq923_924: x923 + x924 >= 1
 c1847_neq923_924: - x923 - x924 >= -1
 c1848_neq924_925: x924 + x925 >= 1
 c1849_neq924_925: - x924 - x925 >= -1
 c1850_neq925_926: x925 + x926 >= 1
 c1851_neq925_926: - x925 - x926 >= -1
 c1852_neq926_927: x926 + x927 >= 1
 c1853_neq926_927: - x926 - x927 >= -1
 c1854_neq927_928: x927 + x928 >= 1
 c1855_neq927_928: - x927 - x928 >= -1
 c1856_neq928_929: x928 + x929 >= 1
 c1857_neq928_929: - x928 - x929 >= -1
 c1858_neq929_930: x929 + x930 >= 1
 c1859_neq929_930: - x929 - x930 >= -1
 c1860_neq930_931: x930 + x931 >= 1
 c1861_neq930_931: - x930 - x931 >= -1
 c1862_neq931_932: x931 + x932 >= 1
 c1863_neq931_932: - x931 - x932 >= -1
 c1864_neq932_933: x932 + x933 >= 1
 c1865_neq932_933: - x932 - x933 >= -1
 c1866_neq933_934: x933 + x934 >= 1
 c1867_neq933_934: - x933 - x934 >= -1
 c1868_neq934_935: x934 + x935 >= 1
 c1869_neq934_935: - x934 - x935 >= -1
 c1870_neq935_936: x935 + x936 >= 1
 c1871_neq935_936: - x935 - x936 >= -1
 c1872_neq936_937: x936 + x937 >= 1
 c1873_neq936_937: - x936 - x937 >= -1
 c1874_neq937_938: x937 + x938 >= 1
 c1875_neq937_938: - x937 - x938 >= -1
 c1876_neq938_939: x938 + x939 >= 1
 c1877_neq938_939: - x938 - x939 >= -1
 c1878_neq939_940: x939 + x940 >= 1
 c1879_neq939_940: - x939 - x940 >= -1
 c1880_neq940_941: x940 + x941 >= 1
 c1881_neq940_941: - x940 - x941 >= -1
 c1882_neq941_942: x941 + x942 >= 1
 c1883_neq941_942: - x941 - x942 >= -1
 c1884_neq942_943: x942 + x943 >= 1
 c1885_neq942_943: - x942 - x943 >= -1
 c1886_neq943_944: x943 + x944 >= 1
 c1887_neq943_944: - x943 - x944 >= -1
 c1888_neq944_945: x944 + x945 >= 1
 c1889_neq944_945: - x944 - x945 >= -1
 c1890_neq945_946: x945 + x946 >= 1
 c1891_neq945_946: - x945 - x946 >= -1
 c1892_neq946_947: x946 + x947 >= 1
 c1893_neq946_947: - x946 - x947 >= -1
 c1894_neq947_948: x947 + x948 >= 1
 c1895_neq947_948: - x947 - x948 >= -1
 c1896_neq948_949: x948 + x949 >= 1
 c1897_neq948_949: - x948 - x949 >= -1
 c1898_neq949_950: x949 + x950 >= 1
 c1899_neq949_950: - x949 - x950 >= -1
 c1900_neq950_951: x950 + x951 >= 1
 c1901_neq950_951: - x950 - x951 >= -1
 c1902_neq951_952: x951 + x952 >= 1
 c1903_neq951_952: - x951 - x952 >= -1
 c1904_neq952_953: x952 + x953 >= 1
 c1905_neq952_953: - x952 - x953 >= -1
 c1906_neq953_954: x953 + x954 >= 1
 c1907_neq953_954: - x953 - x954 >= -1
 c1908_neq954_955: x954 + x955 >= 1
 c1909_neq954_955: - x954 - x955 >= -1
 c1910_neq955_956: x955 + x956 >= 1
 c1911_neq955_956: - x955 - x956 >= -1
 c1912_neq956_957: x956 + x957 >= 1
 c1913_neq956_957: - x956 - x957 >= -1
 c1914_neq957_958: x957 + x958 >= 1
 c1915_neq957_958: - x957 - x958 >= -1
 c1916_neq958_959: x958 + x959 >= 1
 c1917_neq958_959: - x958 - x959 >= -1
 c1918_neq959_960: x959 + x960 >= 1
 c1919_neq959_960: - x959 - x960 >= -1
 c1920_neq960_961: x960 + x961 >= 1
 c1921_neq960_961: - x960 - x961 >= -1
 c1922_neq961_962: x961 + x962 >= 1
 c1923_neq961_962: - x961 - x962 >= -1
 c1924_neq962_963: x962 + x963 >= 1
 c1925_neq962_963: - x962 - x963 >= -1
 c1926_neq963_964: x963 + x964 >= 1
 c1927_neq963_964: - x963 - x964 >= -1
 c1928_neq964_965: x964 + x965 >= 1
 c1929_neq964_965: - x964 - x965 >= -1
 c1930_neq965_966: x965 + x966 >= 1
 c1931_neq965_966: - x965 - x966 >= -1
 c1932_neq966_967: x966 + x967 >= 1
 c1933_neq966_967: - x966 - x967 >= -1
 c1934_neq967_968: x967 + x968 >= 1
 c1935_neq967_968: - x967 - x968 >= -1
 c1936_neq968_969: x968 + x969 >= 1
 c1937_neq968_969: - x968 - x969 >= -1
 c1938_neq969_970: x969 + x970 >= 1
 c1939_neq969_970: - x969 - x970 >= -1
 c1940_neq970_971: x970 + x971 >= 1
 c1941_neq970_971: - x970 - x971 >= -1
 c1942_neq971_972: x971 + x972 >= 1
 c1943_neq971_972: - x971 - x972 >= -1
 c1944_neq972_973: x972 + x973 >= 1
 c1945_neq972_973: - x972 - x973 >= -1
 c1946_neq973_974: x973 + x974 >= 1
 c1947_neq973_974: - x973 - x974 >= -1
 c1948_neq974_975: x974 + x975 >= 1
 c1949_neq974_975: - x974 - x975 >= -1
 c1950_neq975_976: x975 + x976 >= 1
 c1951_neq975_976: - x975 - x976 >= -1
 c1952_neq976_977: x976 + x977 >= 1
 c1953_neq976_977: - x976 - x977 >= -1
 c1954_neq977_978: x977 + x978 >= 1
 c1955_neq977_978: - x977 - x978 >= -1
 c1956_neq978_979: x978 + x979 >= 1
 c1957_neq978_979: - x978 - x979 >= -1
 c1958_neq979_980: x979 + x980 >= 1
 c1959_neq979_980: - x979 - x980 >= -1
 c1960_neq980_981: x980 + x981 >= 1
 c1961_neq980_981: - x980 - x981 >= -1
 c1962_neq981_982: x981 + x982 >= 1
 c1963_neq981_982: - x981 - x982 >= -1
 c1964_neq982_983: x982 + x983 >= 1
 c1965_neq982_983: - x982 - x983 >= -1
 c1966_neq983_984: x983 + x984 >= 1
 c1967_neq983_984: - x983 - x984 >= -1
 c1968_neq984_985: x984 + x985 >= 1
 c1969_neq984_985: - x984 - x985 >= -1
 c1970_neq985_986: x985 + x986 >= 1
 c1971_neq985_986: - x985 - x986 >= -1
 c1972_neq986_987: x986 + x987 >= 1
 c1973_neq986_987: - x986 - x987 >= -1
 c1974_neq987_988: x987 + x988 >= 1
 c1975_neq987_988: - x987 - x988 >= -1
 c1976_neq988_989: x988 + x989 >= 1
 c1977_neq988_989: - x988 - x989 >= -1
 c1978_neq989_990: x989 + x990 >= 1
 c1979_neq989_990: - x989 - x990 >= -1
 c1980_neq990_991: x990 + x991 >= 1
 c1981_neq990_991: - x990 - x991 >= -1
 c1982_neq991_992: x991 + x992 >= 1
 c1983_neq991_992: - x991 - x992 >= -1
 c1984_neq992_993: x992 + x993 >= 1
 c1985_neq992_993: - x992 - x993 >= -1
 c1986_neq993_994: x993 + x994 >= 1
 c1987_neq993_994: - x993 - x994 >= -1
 c1988_neq994_995: x994 + x995 >= 1
 c1989_neq994_995: - x994 - x995 >= -1
 c1990_neq995_996: x995 + x996 >= 1
 c1991_neq995_996: - x995 - x996 >= -1
 c1992_neq996_997: x996 + x997 >= 1
 c1993_neq996_997: - x996 - x997 >= -1
 c1994_neq997_998: x997 + x998 >= 1
 c1995_neq997_998: - x997 - x998 >= -1
 c1996_neq998_999: x998 + x999 >= 1
 c1997_neq998_999: - x998 - x999 >= -1
 c1998_neq999_1000: x999 + x1000 >= 1
 c1999_neq999_1000: - x999 - x1000 >= -1
 c2000_neq1000_1001: x1000 + x1001 >= 1
 c2001_neq1000_1001: - x1000 - x1001 >= -1
 c2002_neq1001_1002: x1001 + x1002 >= 1
 c2003_neq1001_1002: - x1001 - x1002 >= -1
 c2004_neq1002_1003: x1002 + x1003 >= 1
 c2005_neq1002_1003: - x1002 - x1003 >= -1
 c2006_neq1003_1004: x1003 + x1004 >= 1
 c2007_neq1003_1004: - x1003 - x1004 >= -1
 c2008_neq1004_1005: x1004 + x1005 >= 1
 c2009_neq1004_1005: - x1004 - x1005 >= -1
 c2010_neq1005_1006: x1005 + x1006 >= 1
 c2011_neq1005_1006: - x1005 - x1006 >= -1
 c2012_neq1006_1007: x1006 + x1007 >= 1
 c2013_neq1006_1007: - x1006 - x1007 >= -1
 c2014_neq1007_1008: x1007 + x1008 >= 1
 c2015_neq1007_1008: - x1007 - x1008 >= -1
 c2016_neq1008_1009: x1008 + x1009 >= 1
 c2017_neq1008_1009: - x1008 - x1009 >= -1
 c2018_neq1009_1010: x1009 + x1010 >= 1
 c2019_neq1009_1010: - x1009 - x1010 >= -1
 c2020_neq1010_1011: x1010 + x1011 >= 1
 c2021_neq1010_1011: - x1010 - x1011 >= -1
 c2022_neq1011_1012: x1011 + x1012 >= 1
 c2023_neq1011_1012: - x1011 - x1012 >= -1
 c2024_neq1012_1013: x1012 + x1013 >= 1
 c2025_neq1012_1013: - x1012 - x1013 >= -1
 c2026_neq1013_1014: x1013 + x1014 >= 1
 c2027_neq1013_1014: - x1013 - x1014 >= -1
 c2028_neq1014_1015: x1014 + x1015 >= 1
 c2029_neq1014_1015: - x1014 - x1015 >= -1
 c2030_neq1015_1016: x1015 + x1016 >= 1
 c2031_neq1015_1016: - x1015 - x1016 >= -1
 c2032_neq1016_1017: x1016 + x1017 >= 1
 c2033_neq1016_1017: - x1016 - x1017 >= -1
 c2034_neq1017_1018: x1017 + x1018 >= 1
 c2035_neq1017_1018: - x1017 - x1018 >= -1
 c2036_neq1018_1019: x1018 + x1019 >= 1
 c2037_neq1018_1019: - x1018 - x1019 >= -1
 c2038_neq1019_1020: x1019 + x1020 >= 1
 c2039_neq1019_1020: - x1019 - x1020 >= -1
 c2040_neq1020_1021: x1020 + x1021 >= 1
 c2041_neq1020_1021: - x1020 - x1021 >= -1
 c2042_neq1021_1022: x1021 + x1022 >= 1
 c2043_neq1021_1022: - x1021 - x1022 >= -1
 c2044_neq1022_1023: x1022 + x1023 >= 1
 c2045_neq1022_1023: - x1022 - x1023 >= -1
 c2046_neq1023_1024: x1023 + x1024 >= 1
 c2047_neq1023_1024: - x1023 - x1024 >= -1
 c2048_neq1024_1025: x1024 + x1025 >= 1
 c2049_neq1024_1025: - x1024 - x1025 >= -1
 c2050_neq1025_1026: x1025 + x1026 >= 1
 c2051_neq1025_1026: - x1025 - x1026 >= -1
 c2052_neq1026_1027: x1026 + x1027 >= 1
 c2053_neq1026_1027: - x1026 - x1027 >= -1
 c2054_neq1027_1028: x1027 + x1028 >= 1
 c2055_neq1027_1028: - x1027 - x1028 >= -1
 c2056_neq1028_1029: x1028 + x1029 >= 1
 c2057_neq1028_1029: - x1028 - x1029 >= -1
 c2058_neq1029_1030: x1029 + x1030 >= 1
 c2059_neq1029_1030: - x1029 - x1030 >= -1
 c2060_neq1030_1031: x1030 + x1031 >= 1
 c2061_neq1030_1031: - x1030 - x1031 >= -1
 c2062_neq1031_1032: x1031 + x1032 >= 1
 c2063_neq1031_1032: - x1031 - x1032 >= -1
 c2064_neq1032_1033: x1032 + x1033 >= 1
 c2065_neq1032_1033: - x1032 - x1033 >= -1
 c2066_neq1033_1034: x1033 + x1034 >= 1
 c2067_neq1033_1034: - x1033 - x1034 >= -1
 c2068_neq1034_1035: x1034 + x1035 >= 1
 c2069_neq1034_1035: - x1034 - x1035 >= -1
 c2070_neq1035_1036: x1035 + x1036 >= 1
 c2071_neq1035_1036: - x1035 - x1036 >= -1
 c2072_neq1036_1037: x1036 + x1037 >= 1
 c2073_neq1036_1037: - x1036 - x1037 >= -1
 c2074_neq1037_1038: x1037 + x1038 >= 1
 c2075_neq1037_1038: - x1037 - x1038 >= -1
 c2076_neq1038_1039: x1038 + x1039 >= 1
 c2077_neq1038_1039: - x1038 - x1039 >= -1
 c2078_neq1039_1040: x1039 + x1040 >= 1
 c2079_neq1039_1040: - x1039 - x1040 >= -1
 c2080_neq1040_1041: x1040 + x1041 >= 1
 c2081_neq1040_1041: - x1040 - x1041 >= -1
 c2082_neq1041_1042: x1041 + x1042 >= 1
 c2083_neq1041_1042: - x1041 - x1042 >= -1
 c2084_neq1042_1043: x1042 + x1043 >= 1
 c2085_neq1042_1043: - x1042 - x1043 >= -1
 c2086_neq1043_1044: x1043 + x1044 >= 1
 c2087_neq1043_1044: - x1043 - x1044 >= -1
 c2088_neq1044_1045: x1044 + x1045 >= 1
 c2089_neq1044_1045: - x1044 - x1045 >= -1
 c2090_neq1045_1046: x1045 + x1046 >= 1
 c2091_neq1045_1046: - x1045 - x1046 >= -1
 c2092_neq1046_1047: x1046 + x1047 >= 1
 c2093_neq1046_1047: - x1046 - x1047 >= -1
 c2094_neq1047_1048: x1047 + x1048 >= 1
 c2095_neq1047_1048: - x1047 - x1048 >= -1
 c2096_neq1048_1049: x1048 + x1049 >= 1
 c2097_neq1048_1049: - x1048 - x1049 >= -1
 c2098_neq1049_1050: x1049 + x1050 >= 1
 c2099_neq1049_1050: - x1049 - x1050 >= -1
 c2100_neq1050_1051: x1050 + x1051 >= 1
 c2101_neq1050_1051: - x1050 - x1051 >= -1
 c2102_neq1051_1052: x1051 + x1052 >= 1
 c2103_neq1051_1052: - x1051 - x1052 >= -1
 c2104_neq1052_1053: x1052 + x1053 >= 1
 c2105_neq1052_1053: - x1052 - x1053 >= -1
 c2106_neq1053_1054: x1053 + x1054 >= 1
 c2107_neq1053_1054: - x1053 - x1054 >= -1
 c2108_neq1054_1055: x1054 + x1055 >= 1
 c2109_neq1054_1055: - x1054 - x1055 >= -1
 c2110_neq1055_1056: x1055 + x1056 >= 1
 c2111_neq1055_1056: - x1055 - x1056 >= -1
 c2112_neq1056_1057: x1056 + x1057 >= 1
 c2113_neq1056_1057: - x1056 - x1057 >= -1
 c2114_neq1057_1058: x1057 + x1058 >= 1
 c2115_neq1057_1058: - x1057 - x1058 >= -1
 c2116_neq1058_1059: x1058 + x1059 >= 1
 c2117_neq1058_1059: - x1058 - x1059 >= -1
 c2118_neq1059_1060: x1059 + x1060 >= 1
 c2119_neq1059_1060: - x1059 - x1060 >= -1
 c2120_neq1060_1061: x1060 + x1061 >= 1
 c2121_neq1060_1061: - x1060 - x1061 >= -1
 c2122_neq1061_1062: x1061 + x1062 >= 1
 c2123_neq1061_1062: - x1061 - x1062 >= -1
 c2124_neq1062_1063: x1062 + x1063 >= 1
 c2125_neq1062_1063: - x1062 - x1063 >= -1
 c2126_neq1063_1064: x1063 + x1064 >= 1
 c2127_neq1063_1064: - x1063 - x1064 >= -1
 c2128_neq1064_1065: x1064 + x1065 >= 1
 c2129_neq1064_1065: - x1064 - x1065 >= -1
 c2130_neq1065_1066: x1065 + x1066 >= 1
 c2131_neq1065_1066: - x1065 - x1066 >= -1
 c2132_neq1066_1067: x1066 + x1067 >= 1
 c2133_neq1066_1067: - x1066 - x1067 >= -1
 c2134_neq1067_1068: x1067 + x1068 >= 1
 c2135_neq1067_1068: - x1067 - x1068 >= -1
 c2136_neq1068_1069: x1068 + x1069 >= 1
 c2137_neq1068_1069: - x1068 - x1069 >= -1
 c2138_neq1069_1070: x1069 + x1070 >= 1
 c2139_neq1069_1070: - x1069 - x1070 >= -1
 c2140_neq1070_1071: x1070 + x1071 >= 1
 c2141_neq1070_1071: - x1070 - x1071 >= -1
 c2142_neq1071_1072: x1071 + x1072 >= 1
 c2143_neq1071_1072: - x1071 - x1072 >= -1
 c2144_neq1072_1073: x1072 + x1073 >= 1
 c2145_neq1072_1073: - x1072 - x1073 >= -1
 c2146_neq1073_1074: x1073 + x1074 >= 1
 c2147_neq1073_1074: - x1073 - x1074 >= -1
 c2148_neq1074_1075: x1074 + x1075 >= 1
 c2149_neq1074_1075: - x1074 - x1075 >= -1
 c2150_neq1075_1076: x1075 + x1076 >= 1
 c2151_neq1075_1076: - x1075 - x1076 >= -1
 c2152_neq1076_1077: x1076 + x1077 >= 1
 c2153_neq1076_1077: - x1076 - x1077 >= -1
 c2154_neq1077_1078: x1077 + x1078 >= 1
 c2155_neq1077_1078: - x1077 - x1078 >= -1
 c2156_neq1078_1079: x1078 + x1079 >= 1
 c2157_neq1078_1079: - x1078 - x1079 >= -1
 c2158_neq1079_1080: x1079 + x1080 >= 1
 c2159_neq1079_1080: - x1079 - x1080 >= -1
 c2160_neq1080_1081: x1080 + x1081 >= 1
 c2161_neq1080_1081: - x1080 - x1081 >= -1
 c2162_neq1081_1082: x1081 + x1082 >= 1
 c2163_neq1081_1082: - x1081 - x1082 >= -1
 c2164_neq1082_1083: x1082 + x1083 >= 1
 c2165_neq1082_1083: - x1082 - x1083 >= -1
 c2166_neq1083_1084: x1083 + x1084 >= 1
 c2167_neq1083_1084: - x1083 - x1084 >= -1
 c2168_neq1084_1085: x1084 + x1085 >= 1
 c2169_neq1084_1085: - x1084 - x1085 >= -1
 c2170_neq1085_1086: x1085 + x1086 >= 1
 c2171_neq1085_1086: - x1085 - x1086 >= -1
 c2172_neq1086_1087: x1086 + x1087 >= 1
 c2173_neq1086_1087: - x1086 - x1087 >= -1
 c2174_neq1087_1088: x1087 + x1088 >= 1
 c2175_neq1087_1088: - x1087 - x1088 >= -1
 c2176_neq1088_1089: x1088 + x1089 >= 1
 c2177_neq1088_1089: - x1088 - x1089 >= -1
 c2178_neq1089_1090: x1089 + x1090 >= 1
 c2179_neq1089_1090: - x1089 - x1090 >= -1
 c2180_neq1090_1091: x1090 + x1091 >= 1
 c2181_neq1090_1091: - x1090 - x1091 >= -1
 c2182_neq1091_1092: x1091 + x1092 >= 1
 c2183_neq1091_1092: - x1091 - x1092 >= -1
 c2184_neq1092_1093: x1092 + x1093 >= 1
 c2185_neq1092_1093: - x1092 - x1093 >= -1
 c2186_neq1093_1094: x1093 + x1094 >= 1
 c2187_neq1093_1094: - x1093 - x1094 >= -1
 c2188_neq1094_1095: x1094 + x1095 >= 1
 c2189_neq1094_1095: - x1094 - x1095 >= -1
 c2190_neq1095_1096: x1095 + x1096 >= 1
 c2191_neq1095_1096: - x1095 - x1096 >= -1
 c2192_neq1096_1097: x1096 + x1097 >= 1
 c2193_neq1096_1097: - x1096 - x1097 >= -1
 c2194_neq1097_1098: x1097 + x1098 >= 1
 c2195_neq1097_1098: - x1097 - x1098 >= -1
 c2196_neq1098_1099: x1098 + x1099 >= 1
 c2197_neq1098_1099: - x1098 - x1099 >= -1
 c2198_neq1099_1100: x1099 + x1100 >= 1
 c2199_neq1099_1100: - x1099 - x1100 >= -1
 c2200_neq1100_1101: x1100 + x1101 >= 1
 c2201_neq1100_1101: - x1100 - x1101 >= -1
 c2202_neq1101_1102: x1101 + x1102 >= 1
 c2203_neq1101_1102: - x1101 - x1102 >= -1
 c2204_neq1102_1103: x1102 + x1103 >= 1
 c2205_neq1102_1103: - x1102 - x1103 >= -1
 c2206_neq1103_1104: x1103 + x1104 >= 1
 c2207_neq1103_1104: - x1103 - x1104 >= -1
 c2208_neq1104_1105: x1104 + x1105 >= 1
 c2209_neq1104_1105: - x1104 - x1105 >= -1
 c2210_neq1105_1106: x1105 + x1106 >= 1
 c2211_neq1105_1106: - x1105 - x1106 >= -1
 c2212_neq1106_1107: x1106 + x1107 >= 1
 c2213_neq1106_1107: - x1106 - x1107 >= -1
 c2214_neq1107_1108: x1107 + x1108 >= 1
 c2215_neq1107_1108: - x1107 - x1108 >= -1
 c2216_neq1108_1109: x1108 + x1109 >= 1
 c2217_neq1108_1109: - x1108 - x1109 >= -1
 c2218_neq1109_1110: x1109 + x1110 >= 1
 c2219_neq1109_1110: - x1109 - x1110 >= -1
 c2220_neq1110_1111: x1110 + x1111 >= 1
 c2221_neq1110_1111: - x1110 - x1111 >= -1
 c2222_neq1111_1112: x1111 + x1112 >= 1
 c2223_neq1111_1112: - x1111 - x1112 >= -1
 c2224_neq1112_1113: x1112 + x1113 >= 1
 c2225_neq1112_1113: - x1112 - x1113 >= -1
 c2226_neq1113_1114: x1113 + x1114 >= 1
 c2227_neq1113_1114: - x1113 - x1114 >= -1
 c2228_neq1114_1115: x1114 + x1115 >= 1
 c2229_neq1114_1115: - x1114 - x1115 >= -1
 c2230_neq1115_1116: x1115 + x1116 >= 1
 c2231_neq1115_1116: - x1115 - x1116 >= -1
 c2232_neq1116_1117: x1116 + x1117 >= 1
 c2233_neq1116_1117: - x1116 - x1117 >= -1
 c2234_neq1117_1118: x1117 + x1118 >= 1
 c2235_neq1117_1118: - x1117 - x1118 >= -1
 c2236_neq1118_1119: x1118 + x1119 >= 1
 c2237_neq1118_1119: - x1118 - x1119 >= -1
 c2238_neq1119_1120: x1119 + x1120 >= 1
 c2239_neq1119_1120: - x1119 - x1120 >= -1
 c2240_neq1120_1121: x1120 + x1121 >= 1
 c2241_neq1120_1121: - x1120 - x1121 >= -1
 c2242_neq1121_1122: x1121 + x1122 >= 1
 c2243_neq1121_1122: - x1121 - x1122 >= -1
 c2244_neq1122_1123: x1122 + x1123 >= 1
 c2245_neq1122_1123: - x1122 - x1123 >= -1
 c2246_neq1123_1124: x1123 + x1124 >= 1
 c2247_neq1123_1124: - x1123 - x1124 >= -1
 c2248_neq1124_1125: x1124 + x1125 >= 1
 c2249_neq1124_1125: - x1124 - x1125 >= -1
 c2250_neq1125_1126: x1125 + x1126 >= 1
 c2251_neq1125_1126: - x1125 - x1126 >= -1
 c2252_neq1126_1127: x1126 + x1127 >= 1
 c2253_neq1126_1127: - x1126 - x1127 >= -1
 c2254_neq1127_1128: x1127 + x1128 >= 1
 c2255_neq1127_1128: - x1127 - x1128 >= -1
 c2256_neq1128_1129: x1128 + x1129 >= 1
 c2257_neq1128_1129: - x1128 - x1129 >= -1
 c2258_neq1129_1130: x1129 + x1130 >= 1
 c2259_neq1129_1130: - x1129 - x1130 >= -1
 c2260_neq1130_1131: x1130 + x1131 >= 1
 c2261_neq1130_1131: - x1130 - x1131 >= -1
 c2262_neq1131_1132: x1131 + x1132 >= 1
 c2263_neq1131_1132: - x1131 - x1132 >= -1
 c2264_neq1132_1133: x1132 + x1133 >= 1
 c2265_neq1132_1133: - x1132 - x1133 >= -1
 c2266_neq1133_1134: x1133 + x1134 >= 1
 c2267_neq1133_1134: - x1133 - x1134 >= -1
 c2268_neq1134_1135: x1134 + x1135 >= 1
 c2269_neq1134_1135: - x1134 - x1135 >= -1
 c2270_neq1135_1136: x1135 + x1136 >= 1
 c2271_neq1135_1136: - x1135 - x1136 >= -1
 c2272_neq1136_1137: x1136 + x1137 >= 1
 c2273_neq1136_1137: - x1136 - x1137 >= -1
 c2274_neq1137_1138: x1137 + x1138 >= 1
 c2275_neq1137_1138: - x1137 - x1138 >= -1
 c2276_neq1138_1139: x1138 + x1139 >= 1
 c2277_neq1138_1139: - x1138 - x1139 >= -1
 c2278_neq1139_1140: x1139 + x1140 >= 1
 c2279_neq1139_1140: - x1139 - x1140 >= -1
 c2280_neq1140_1141: x1140 + x1141 >= 1
 c2281_neq1140_1141: - x1140 - x1141 >= -1
 c2282_neq1141_1142: x1141 + x1142 >= 1
 c2283_neq1141_1142: - x1141 - x1142 >= -1
 c2284_neq1142_1143: x1142 + x1143 >= 1
 c2285_neq1142_1143: - x1142 - x1143 >= -1
 c2286_neq1143_1144: x1143 + x1144 >= 1
 c2287_neq1143_1144: - x1143 - x1144 >= -1
 c2288_neq1144_1145: x1144 + x1145 >= 1
 c2289_neq1144_1145: - x1144 - x1145 >= -1
 c2290_neq1145_1146: x1145 + x1146 >= 1
 c2291_neq1145_1146: - x1145 - x1146 >= -1
 c2292_neq1146_1147: x1146 + x1147 >= 1
 c2293_neq1146_1147: - x1146 - x1147 >= -1
 c2294_neq1147_1148: x1147 + x1148 >= 1
 c2295_neq1147_1148: - x1147 - x1148 >= -1
 c2296_neq1148_1149: x1148 + x1149 >= 1
 c2297_neq1148_1149: - x1148 - x1149 >= -1
 c2298_neq1149_1150: x1149 + x1150 >= 1
 c2299_neq1149_1150: - x1149 - x1150 >= -1
 c2300_neq1150_1151: x1150 + x1151 >= 1
 c2301_neq1150_1151: - x1150 - x1151 >= -1
 c2302_neq1151_1152: x1151 + x1152 >= 1
 c2303_neq1151_1152: - x1151 - x1152 >= -1
 c2304_neq1152_1153: x1152 + x1153 >= 1
 c2305_neq1152_1153: - x1152 - x1153 >= -1
 c2306_neq1153_1154: x1153 + x1154 >= 1
 c2307_neq1153_1154: - x1153 - x1154 >= -1
 c2308_neq1154_1155: x1154 + x1155 >= 1
 c2309_neq1154_1155: - x1154 - x1155 >= -1
 c2310_neq1155_1156: x1155 + x1156 >= 1
 c2311_neq1155_1156: - x1155 - x1156 >= -1
 c2312_neq1156_1157: x1156 + x1157 >= 1
 c2313_neq1156_1157: - x1156 - x1157 >= -1
 c2314_neq1157_1158: x1157 + x1158 >= 1
 c2315_neq1157_1158: - x1157 - x1158 >= -1
 c2316_neq1158_1159: x1158 + x1159 >= 1
 c2317_neq1158_1159: - x1158 - x1159 >= -1
 c2318_neq1159_1160: x1159 + x1160 >= 1
 c2319_neq1159_1160: - x1159 - x1160 >= -1
 c2320_neq1160_1161: x1160 + x1161 >= 1
 c2321_neq1160_1161: - x1160 - x1161 >= -1
 c2322_neq1161_1162: x1161 + x1162 >= 1
 c2323_neq1161_1162: - x1161 - x1162 >= -1
 c2324_neq1162_1163: x1162 + x1163 >= 1
 c2325_neq1162_1163: - x1162 - x1163 >= -1
 c2326_neq1163_1164: x1163 + x1164 >= 1
 c2327_neq1163_1164: - x1163 - x1164 >= -1
 c2328_neq1164_1165: x1164 + x1165 >= 1
 c2329_neq1164_1165: - x1164 - x1165 >= -1
 c2330_neq1165_1166: x1165 + x1166 >= 1
 c2331_neq1165_1166: - x1165 - x1166 >= -1
 c2332_neq1166_1167: x1166 + x1167 >= 1
 c2333_neq1166_1167: - x1166 - x1167 >= -1
 c2334_neq1167_1168: x1167 + x1168 >= 1
 c2335_neq1167_1168: - x1167 - x1168 >= -1
 c2336_neq1168_1169: x1168 + x1169 >= 1
 c2337_neq1168_1169: - x1168 - x1169 >= -1
 c2338_neq1169_1170: x1169 + x1170 >= 1
 c2339_neq1169_1170: - x1169 - x1170 >= -1
 c2340_neq1170_1171: x1170 + x1171 >= 1
 c2341_neq1170_1171: - x1170 - x1171 >= -1
 c2342_neq1171_1172: x1171 + x1172 >= 1
 c2343_neq1171_1172: - x1171 - x1172 >= -1
 c2344_neq1172_1173: x1172 + x1173 >= 1
 c2345_neq1172_1173: - x1172 - x1173 >= -1
 c2346_neq1173_1174: x1173 + x1174 >= 1
 c2347_neq1173_1174: - x1173 - x1174 >= -1
 c2348_neq1174_1175: x1174 + x1175 >= 1
 c2349_neq1174_1175: - x1174 - x1175 >= -1
 c2350_neq1175_1176: x1175 + x1176 >= 1
 c2351_neq1175_1176: - x1175 - x1176 >= -1
 c2352_neq1176_1177: x1176 + x1177 >= 1
 c2353_neq1176_1177: - x1176 - x1177 >= -1
 c2354_neq1177_1178: x1177 + x1178 >= 1
 c2355_neq1177_1178: - x1177 - x1178 >= -1
 c2356_neq1178_1179: x1178 + x1179 >= 1
 c2357_neq1178_1179: - x1178 - x1179 >= -1
 c2358_neq1179_1180: x1179 + x1180 >= 1
 c2359_neq1179_1180: - x1179 - x1180 >= -1
 c2360_neq1180_1181: x1180 + x1181 >= 1
 c2361_neq1180_1181: - x1180 - x1181 >= -1
 c2362_neq1181_1182: x1181 + x1182 >= 1
 c2363_neq1181_1182: - x1181 - x1182 >= -1
 c2364_neq1182_1183: x1182 + x1183 >= 1
 c2365_neq1182_1183: - x1182 - x1183 >= -1
 c2366_neq1183_1184: x1183 + x1184 >= 1
 c2367_neq1183_1184: - x1183 - x1184 >= -1
 c2368_neq1184_1185: x1184 + x1185 >= 1
 c2369_neq1184_1185: - x1184 - x1185 >= -1
 c2370_neq1185_1186: x1185 + x1186 >= 1
 c2371_neq1185_1186: - x1185 - x1186 >= -1
 c2372_neq1186_1187: x1186 + x1187 >= 1
 c2373_neq1186_1187: - x1186 - x1187 >= -1
 c2374_neq1187_1188: x1187 + x1188 >= 1
 c2375_neq1187_1188: - x1187 - x1188 >= -1
 c2376_neq1188_1189: x1188 + x1189 >= 1
 c2377_neq1188_1189: - x1188 - x1189 >= -1
 c2378_neq1189_1190: x1189 + x1190 >= 1
 c2379_neq1189_1190: - x1189 - x1190 >= -1
 c2380_neq1190_1191: x1190 + x1191 >= 1
 c2381_neq1190_1191: - x1190 - x1191 >= -1
 c2382_neq1191_1192: x1191 + x1192 >= 1
 c2383_neq1191_1192: - x1191 - x1192 >= -1
 c2384_neq1192_1193: x1192 + x1193 >= 1
 c2385_neq1192_1193: - x1192 - x1193 >= -1
 c2386_neq1193_1194: x1193 + x1194 >= 1
 c2387_neq1193_1194: - x1193 - x1194 >= -1
 c2388_neq1194_1195: x1194 + x1195 >= 1
 c2389_neq1194_1195: - x1194 - x1195 >= -1
 c2390_neq1195_1196: x1195 + x1196 >= 1
 c2391_neq1195_1196: - x1195 - x1196 >= -1
 c2392_neq1196_1197: x1196 + x1197 >= 1
 c2393_neq1196_1197: - x1196 - x1197 >= -1
 c2394_neq1197_1198: x1197 + x1198 >= 1
 c2395_neq1197_1198: - x1197 - x1198 >= -1
 c2396_neq1198_1199: x1198 + x1199 >= 1
 c2397_neq1198_1199: - x1198 - x1199 >= -1
 c2398_neq1199_1200: x1199 + x1200 >= 1
 c2399_neq1199_1200: - x1199 - x1200 >= -1
 c2400_neq1200_1201: x1200 + x1201 >= 1
 c2401_neq1200_1201: - x1200 - x1201 >= -1
 c2402_neq1201_1202: x1201 + x1202 >= 1
 c2403_neq1201_1202: - x1201 - x1202 >= -1
 c2404_neq1202_1203: x1202 + x1203 >= 1
 c2405_neq1202_1203: - x1202 - x1203 >= -1
 c2406_neq1203_1204: x1203 + x1204 >= 1
 c2407_neq1203_1204: - x1203 - x1204 >= -1
 c2408_neq1204_1205: x1204 + x1205 >= 1
 c2409_neq1204_1205: - x1204 - x1205 >= -1
 c2410_neq1205_1206: x1205 + x1206 >= 1
 c2411_neq1205_1206: - x1205 - x1206 >= -1
 c2412_neq1206_1207: x1206 + x1207 >= 1
 c2413_neq1206_1207: - x1206 - x1207 >= -1
 c2414_neq1207_1208: x1207 + x1208 >= 1
 c2415_neq1207_1208: - x1207 - x1208 >= -1
 c2416_neq1208_1209: x1208 + x1209 >= 1
 c2417_neq1208_1209: - x1208 - x1209 >= -1
 c2418_neq1209_1210: x1209 + x1210 >= 1
 c2419_neq1209_1210: - x1209 - x1210 >= -1
 c2420_neq1210_1211: x1210 + x1211 >= 1
 c2421_neq1210_1211: - x1210 - x1211 >= -1
 c2422_neq1211_1212: x1211 + x1212 >= 1
 c2423_neq1211_1212: - x1211 - x1212 >= -1
 c2424_neq1212_1213: x1212 + x1213 >= 1
 c2425_neq1212_1213: - x1212 - x1213 >= -1
 c2426_neq1213_1214: x1213 + x1214 >= 1
 c2427_neq1213_1214: - x1213 - x1214 >= -1
 c2428_neq1214_1215: x1214 + x1215 >= 1
 c2429_neq1214_1215: - x1214 - x1215 >= -1
 c2430_neq1215_1216: x1215 + x1216 >= 1
 c2431_neq1215_1216: - x1215 - x1216 >= -1
 c2432_neq1216_1217: x1216 + x1217 >= 1
 c2433_neq1216_1217: - x1216 - x1217 >= -1
 c2434_neq1217_1218: x1217 + x1218 >= 1
 c2435_neq1217_1218: - x1217 - x1218 >= -1
 c2436_neq1218_1219: x1218 + x1219 >= 1
 c2437_neq1218_1219: - x1218 - x1219 >= -1
 c2438_neq1219_1220: x1219 + x1220 >= 1
 c2439_neq1219_1220: - x1219 - x1220 >= -1
 c2440_neq1220_1221: x1220 + x1221 >= 1
 c2441_neq1220_1221: - x1220 - x1221 >= -1
 c2442_neq1221_1222: x1221 + x1222 >= 1
 c2443_neq1221_1222: - x1221 - x1222 >= -1
 c2444_neq1222_1223: x1222 + x1223 >= 1
 c2445_neq1222_1223: - x1222 - x1223 >= -1
 c2446_neq1223_1224: x1223 + x1224 >= 1
 c2447_neq1223_1224: - x1223 - x1224 >= -1
 c2448_neq1224_1225: x1224 + x1225 >= 1
 c2449_neq1224_1225: - x1224 - x1225 >= -1
 c2450_neq1225_1226: x1225 + x1226 >= 1
 c2451_neq1225_1226: - x1225 - x1226 >= -1
 c2452_neq1226_1227: x1226 + x1227 >= 1
 c2453_neq1226_1227: - x1226 - x1227 >= -1
 c2454_neq1227_1228: x1227 + x1228 >= 1
 c2455_neq1227_1228: - x1227 - x1228 >= -1
 c2456_neq1228_1229: x1228 + x1229 >= 1
 c2457_neq1228_1229: - x1228 - x1229 >= -1
 c2458_neq1229_1230: x1229 + x1230 >= 1
 c2459_neq1229_1230: - x1229 - x1230 >= -1
 c2460_neq1230_1231: x1230 + x1231 >= 1
 c2461_neq1230_1231: - x1230 - x1231 >= -1
 c2462_neq1231_1232: x1231 + x1232 >= 1
 c2463_neq1231_1232: - x1231 - x1232 >= -1
 c2464_neq1232_1233: x1232 + x1233 >= 1
 c2465_neq1232_1233: - x1232 - x1233 >= -1
 c2466_neq1233_1234: x1233 + x1234 >= 1
 c2467_neq1233_1234: - x1233 - x1234 >= -1
 c2468_neq1234_1235: x1234 + x1235 >= 1
 c2469_neq1234_1235: - x1234 - x1235 >= -1
 c2470_neq1235_1236: x1235 + x1236 >= 1
 c2471_neq1235_1236: - x1235 - x1236 >= -1
 c2472_neq1236_1237: x1236 + x1237 >= 1
 c2473_neq1236_1237: - x1236 - x1237 >= -1
 c2474_neq1237_1238: x1237 + x1238 >= 1
 c2475_neq1237_1238: - x1237 - x1238 >= -1
 c2476_neq1238_1239: x1238 + x1239 >= 1
 c2477_neq1238_1239: - x1238 - x1239 >= -1
 c2478_neq1239_1240: x1239 + x1240 >= 1
 c2479_neq1239_1240: - x1239 - x1240 >= -1
 c2480_neq1240_1241: x1240 + x1241 >= 1
 c2481_neq1240_1241: - x1240 - x1241 >= -1
 c2482_neq1241_1242: x1241 + x1242 >= 1
 c2483_neq1241_1242: - x1241 - x1242 >= -1
 c2484_neq1242_1243: x1242 + x1243 >= 1
 c2485_neq1242_1243: - x1242 - x1243 >= -1
 c2486_neq1243_1244: x1243 + x1244 >= 1
 c2487_neq1243_1244: - x1243 - x1244 >= -1
 c2488_neq1244_1245: x1244 + x1245 >= 1
 c2489_neq1244_1245: - x1244 - x1245 >= -1
 c2490_neq1245_1246: x1245 + x1246 >= 1
 c2491_neq1245_1246: - x1245 - x1246 >= -1
 c2492_neq1246_1247: x1246 + x1247 >= 1
 c2493_neq1246_1247: - x1246 - x1247 >= -1
 c2494_neq1247_1248: x1247 + x1248 >= 1
 c2495_neq1247_1248: - x1247 - x1248 >= -1
 c2496_neq1248_1249: x1248 + x1249 >= 1
 c2497_neq1248_1249: - x1248 - x1249 >= -1
 c2498_neq1249_1250: x1249 + x1250 >= 1
 c2499_neq1249_1250: - x1249 - x1250 >= -1
 c2500_neq1250_1251: x1250 + x1251 >= 1
 c2501_neq1250_1251: - x1250 - x1251 >= -1
 c2502_neq1251_1252: x1251 + x1252 >= 1
 c2503_neq1251_1252: - x1251 - x1252 >= -1
 c2504_neq1252_1253: x1252 + x1253 >= 1
 c2505_neq1252_1253: - x1252 - x1253 >= -1
 c2506_neq1253_1254: x1253 + x1254 >= 1
 c2507_neq1253_1254: - x1253 - x1254 >= -1
 c2508_neq1254_1255: x1254 + x1255 >= 1
 c2509_neq1254_1255: - x1254 - x1255 >= -1
 c2510_neq1255_1256: x1255 + x1256 >= 1
 c2511_neq1255_1256: - x1255 - x1256 >= -1
 c2512_neq1256_1257: x1256 + x1257 >= 1
 c2513_neq1256_1257: - x1256 - x1257 >= -1
 c2514_neq1257_1258: x1257 + x1258 >= 1
 c2515_neq1257_1258: - x1257 - x1258 >= -1
 c2516_neq1258_1259: x1258 + x1259 >= 1
 c2517_neq1258_1259: - x1258 - x1259 >= -1
 c2518_neq1259_1260: x1259 + x1260 >= 1
 c2519_neq1259_1260: - x1259 - x1260 >= -1
 c2520_neq1260_1261: x1260 + x1261 >= 1
 c2521_neq1260_1261: - x1260 - x1261 >= -1
 c2522_neq1261_1262: x1261 + x1262 >= 1
 c2523_neq1261_1262: - x1261 - x1262 >= -1
 c2524_neq1262_1263: x1262 + x1263 >= 1
 c2525_neq1262_1263: - x1262 - x1263 >= -1
 c2526_neq1263_1264: x1263 + x1264 >= 1
 c2527_neq1263_1264: - x1263 - x1264 >= -1
 c2528_neq1264_1265: x1264 + x1265 >= 1
 c2529_neq1264_1265: - x1264 - x1265 >= -1
 c2530_neq1265_1266: x1265 + x1266 >= 1
 c2531_neq1265_1266: - x1265 - x1266 >= -1
 c2532_neq1266_1267: x1266 + x1267 >= 1
 c2533_neq1266_1267: - x1266 - x1267 >= -1
 c2534_neq1267_1268: x1267 + x1268 >= 1
 c2535_neq1267_1268: - x1267 - x1268 >= -1
 c2536_neq1268_1269: x1268 + x1269 >= 1
 c2537_neq1268_1269: - x1268 - x1269 >= -1
 c2538_neq1269_1270: x1269 + x1270 >= 1
 c2539_neq1269_1270: - x1269 - x1270 >= -1
 c2540_neq1270_1271: x1270 + x1271 >= 1
 c2541_neq1270_1271: - x1270 - x1271 >= -1
 c2542_neq1271_1272: x1271 + x1272 >= 1
 c2543_neq1271_1272: - x1271 - x1272 >= -1
 c2544_neq1272_1273: x1272 + x1273 >= 1
 c2545_neq1272_1273: - x1272 - x1273 >= -1
 c2546_neq1273_1274: x1273 + x1274 >= 1
 c2547_neq1273_1274: - x1273 - x1274 >= -1
 c2548_neq1274_1275: x1274 + x1275 >= 1
 c2549_neq1274_1275: - x1274 - x1275 >= -1
 c2550_neq1275_1276: x1275 + x1276 >= 1
 c2551_neq1275_1276: - x1275 - x1276 >= -1
 c2552_neq1276_1277: x1276 + x1277 >= 1
 c2553_neq1276_1277: - x1276 - x1277 >= -1
 c2554_neq1277_1278: x1277 + x1278 >= 1
 c2555_neq1277_1278: - x1277 - x1278 >= -1
 c2556_neq1278_1279: x1278 + x1279 >= 1
 c2557_neq1278_1279: - x1278 - x1279 >= -1
 c2558_neq1279_1280: x1279 + x1280 >= 1
 c2559_neq1279_1280: - x1279 - x1280 >= -1
 c2560_neq1280_1281: x1280 + x1281 >= 1
 c2561_neq1280_1281: - x1280 - x1281 >= -1
 c2562_neq1281_1282: x1281 + x1282 >= 1
 c2563_neq1281_1282: - x1281 - x1282 >= -1
 c2564_neq1282_1283: x1282 + x1283 >= 1
 c2565_neq1282_1283: - x1282 - x1283 >= -1
 c2566_neq1283_1284: x1283 + x1284 >= 1
 c2567_neq1283_1284: - x1283 - x1284 >= -1
 c2568_neq1284_1285: x1284 + x1285 >= 1
 c2569_neq1284_1285: - x1284 - x1285 >= -1
 c2570_neq1285_1286: x1285 + x1286 >= 1
 c2571_neq1285_1286: - x1285 - x1286 >= -1
 c2572_neq1286_1287: x1286 + x1287 >= 1
 c2573_neq1286_1287: - x1286 - x1287 >= -1
 c2574_neq1287_1288: x1287 + x1288 >= 1
 c2575_neq1287_1288: - x1287 - x1288 >= -1
 c2576_neq1288_1289: x1288 + x1289 >= 1
 c2577_neq1288_1289: - x1288 - x1289 >= -1
 c2578_neq1289_1290: x1289 + x1290 >= 1
 c2579_neq1289_1290: - x1289 - x1290 >= -1
 c2580_neq1290_1291: x1290 + x1291 >= 1
 c2581_neq1290_1291: - x1290 - x1291 >= -1
 c2582_neq1291_1292: x1291 + x1292 >= 1
 c2583_neq1291_1292: - x1291 - x1292 >= -1
 c2584_neq1292_1293: x1292 + x1293 >= 1
 c2585_neq1292_1293: - x1292 - x1293 >= -1
 c2586_neq1293_1294: x1293 + x1294 >= 1
 c2587_neq1293_1294: - x1293 - x1294 >= -1
 c2588_neq1294_1295: x1294 + x1295 >= 1
 c2589_neq1294_1295: - x1294 - x1295 >= -1
 c2590_neq1295_1296: x1295 + x1296 >= 1
 c2591_neq1295_1296: - x1295 - x1296 >= -1
 c2592_neq1296_1297: x1296 + x1297 >= 1
 c2593_neq1296_1297: - x1296 - x1297 >= -1
 c2594_neq1297_1298: x1297 + x1298 >= 1
 c2595_neq1297_1298: - x1297 - x1298 >= -1
 c2596_neq1298_1299: x1298 + x1299 >= 1
 c2597_neq1298_1299: - x1298 - x1299 >= -1
 c2598_neq1299_1300: x1299 + x1300 >= 1
 c2599_neq1299_1300: - x1299 - x1300 >= -1
 c2600_neq1300_1301: x1300 + x1301 >= 1
 c2601_neq1300_1301: - x1300 - x1301 >= -1
 c2602_neq1301_1302: x1301 + x1302 >= 1
 c2603_neq1301_1302: - x1301 - x1302 >= -1
 c2604_neq1302_1303: x1302 + x1303 >= 1
 c2605_neq1302_1303: - x1302 - x1303 >= -1
 c2606_neq1303_1304: x1303 + x1304 >= 1
 c2607_neq1303_1304: - x1303 - x1304 >= -1
 c2608_neq1304_1305: x1304 + x1305 >= 1
 c2609_neq1304_1305: - x1304 - x1305 >= -1
 c2610_neq1305_1306: x1305 + x1306 >= 1
 c2611_neq1305_1306: - x1305 - x1306 >= -1
 c2612_neq1306_1307: x1306 + x1307 >= 1
 c2613_neq1306_1307: - x1306 - x1307 >= -1
 c2614_neq1307_1308: x1307 + x1308 >= 1
 c2615_neq1307_1308: - x1307 - x1308 >= -1
 c2616_neq1308_1309: x1308 + x1309 >= 1
 c2617_neq1308_1309: - x1308 - x1309 >= -1
 c2618_neq1309_1310: x1309 + x1310 >= 1
 c2619_neq1309_1310: - x1309 - x1310 >= -1
 c2620_neq1310_1311: x1310 + x1311 >= 1
 c2621_neq1310_1311: - x1310 - x1311 >= -1
 c2622_neq1311_1312: x1311 + x1312 >= 1
 c2623_neq1311_1312: - x1311 - x1312 >= -1
 c2624_neq1312_1313: x1312 + x1313 >= 1
 c2625_neq1312_1313: - x1312 - x1313 >= -1
 c2626_neq1313_1314: x1313 + x1314 >= 1
 c2627_neq1313_1314: - x1313 - x1314 >= -1
 c2628_neq1314_1315: x1314 + x1315 >= 1
 c2629_neq1314_1315: - x1314 - x1315 >= -1
 c2630_neq1315_1316: x1315 + x1316 >= 1
 c2631_neq1315_1316: - x1315 - x1316 >= -1
 c2632_neq1316_1317: x1316 + x1317 >= 1
 c2633_neq1316_1317: - x1316 - x1317 >= -1
 c2634_neq1317_1318: x1317 + x1318 >= 1
 c2635_neq1317_1318: - x1317 - x1318 >= -1
 c2636_neq1318_1319: x1318 + x1319 >= 1
 c2637_neq1318_1319: - x1318 - x1319 >= -1
 c2638_neq1319_1320: x1319 + x1320 >= 1
 c2639_neq1319_1320: - x1319 - x1320 >= -1
 c2640_neq1320_1321: x1320 + x1321 >= 1
 c2641_neq1320_1321: - x1320 - x1321 >= -1
 c2642_neq1321_1322: x1321 + x1322 >= 1
 c2643_neq1321_1322: - x1321 - x1322 >= -1
 c2644_neq1322_1323: x1322 + x1323 >= 1
 c2645_neq1322_1323: - x1322 - x1323 >= -1
 c2646_neq1323_1324: x1323 + x1324 >= 1
 c2647_neq1323_1324: - x1323 - x1324 >= -1
 c2648_neq1324_1325: x1324 + x1325 >= 1
 c2649_neq1324_1325: - x1324 - x1325 >= -1
 c2650_neq1325_1326: x1325 + x1326 >= 1
 c2651_neq1325_1326: - x1325 - x1326 >= -1
 c2652_neq1326_1327: x1326 + x1327 >= 1
 c2653_neq1326_1327: - x1326 - x1327 >= -1
 c2654_neq1327_1328: x1327 + x1328 >= 1
 c2655_neq1327_1328: - x1327 - x1328 >= -1
 c2656_neq1328_1329: x1328 + x1329 >= 1
 c2657_neq1328_1329: - x1328 - x1329 >= -1
 c2658_neq1329_1330: x1329 + x1330 >= 1
 c2659_neq1329_1330: - x1329 - x1330 >= -1
 c2660_neq1330_1331: x1330 + x1331 >= 1
 c2661_neq1330_1331: - x1330 - x1331 >= -1
 c2662_neq1331_1332: x1331 + x1332 >= 1
 c2663_neq1331_1332: - x1331 - x1332 >= -1
 c2664_neq1332_1333: x1332 + x1333 >= 1
 c2665_neq1332_1333: - x1332 - x1333 >= -1
 c2666_neq1333_1334: x1333 + x1334 >= 1
 c2667_neq1333_1334: - x1333 - x1334 >= -1
 c2668_neq1334_1335: x1334 + x1335 >= 1
 c2669_neq1334_1335: - x1334 - x1335 >= -1
 c2670_neq1335_1336: x1335 + x1336 >= 1
 c2671_neq1335_1336: - x1335 - x1336 >= -1
 c2672_neq1336_1337: x1336 + x1337 >= 1
 c2673_neq1336_1337: - x1336 - x1337 >= -1
 c2674_neq1337_1338: x1337 + x1338 >= 1
 c2675_neq1337_1338: - x1337 - x1338 >= -1
 c2676_neq1338_1339: x1338 + x1339 >= 1
 c2677_neq1338_1339: - x1338 - x1339 >= -1
 c2678_neq1339_1340: x1339 + x1340 >= 1
 c2679_neq1339_1340: - x1339 - x1340 >= -1
 c2680_neq1340_1341: x1340 + x1341 >= 1
 c2681_neq1340_1341: - x1340 - x1341 >= -1
 c2682_neq1341_1342: x1341 + x1342 >= 1
 c2683_neq1341_1342: - x1341 - x1342 >= -1
 c2684_neq1342_1343: x1342 + x1343 >= 1
 c2685_neq1342_1343: - x1342 - x1343 >= -1
 c2686_neq1343_1344: x1343 + x1344 >= 1
 c2687_neq1343_1344: - x1343 - x1344 >= -1
 c2688_neq1344_1345: x1344 + x1345 >= 1
 c2689_neq1344_1345: - x1344 - x1345 >= -1
 c2690_neq1345_1346: x1345 + x1346 >= 1
 c2691_neq1345_1346: - x1345 - x1346 >= -1
 c2692_neq1346_1347: x1346 + x1347 >= 1
 c2693_neq1346_1347: - x1346 - x1347 >= -1
 c2694_neq1347_1348: x1347 + x1348 >= 1
 c2695_neq1347_1348: - x1347 - x1348 >= -1
 c2696_neq1348_1349: x1348 + x1349 >= 1
 c2697_neq1348_1349: - x1348 - x1349 >= -1
 c2698_neq1349_1350: x1349 + x1350 >= 1
 c2699_neq1349_1350: - x1349 - x1350 >= -1
 c2700_neq1350_1351: x1350 + x1351 >= 1
 c2701_neq1350_1351: - x1350 - x1351 >= -1
 c2702_neq1351_1352: x1351 + x1352 >= 1
 c2703_neq1351_1352: - x1351 - x1352 >= -1
 c2704_neq1352_1353: x1352 + x1353 >= 1
 c2705_neq1352_1353: - x1352 - x1353 >= -1
 c2706_neq1353_1354: x1353 + x1354 >= 1
 c2707_neq1353_1354: - x1353 - x1354 >= -1
 c2708_neq1354_1355: x1354 + x1355 >= 1
 c2709_neq1354_1355: - x1354 - x1355 >= -1
 c2710_neq1355_1356: x1355 + x1356 >= 1
 c2711_neq1355_1356: - x1355 - x1356 >= -1
 c2712_neq1356_1357: x1356 + x1357 >= 1
 c2713_neq1356_1357: - x1356 - x1357 >= -1
 c2714_neq1357_1358: x1357 + x1358 >= 1
 c2715_neq1357_1358: - x1357 - x1358 >= -1
 c2716_neq1358_1359: x1358 + x1359 >= 1
 c2717_neq1358_1359: - x1358 - x1359 >= -1
 c2718_neq1359_1360: x1359 + x1360 >= 1
 c2719_neq1359_1360: - x1359 - x1360 >= -1
 c2720_neq1360_1361: x1360 + x1361 >= 1
 c2721_neq1360_1361: - x1360 - x1361 >= -1
 c2722_neq1361_1362: x1361 + x1362 >= 1
 c2723_neq1361_1362: - x1361 - x1362 >= -1
 c2724_neq1362_1363: x1362 + x1363 >= 1
 c2725_neq1362_1363: - x1362 - x1363 >= -1
 c2726_neq1363_1364: x1363 + x1364 >= 1
 c2727_neq1363_1364: - x1363 - x1364 >= -1
 c2728_neq1364_1365: x1364 + x1365 >= 1
 c2729_neq1364_1365: - x1364 - x1365 >= -1
 c2730_neq1365_1366: x1365 + x1366 >= 1
 c2731_neq1365_1366: - x1365 - x1366 >= -1
 c2732_neq1366_1367: x1366 + x1367 >= 1
 c2733_neq1366_1367: - x1366 - x1367 >= -1
 c2734_neq1367_1368: x1367 + x1368 >= 1
 c2735_neq1367_1368: - x1367 - x1368 >= -1
 c2736_neq1368_1369: x1368 + x1369 >= 1
 c2737_neq1368_1369: - x1368 - x1369 >= -1
 c2738_neq1369_1370: x1369 + x1370 >= 1
 c2739_neq1369_1370: - x1369 - x1370 >= -1
 c2740_neq1370_1371: x1370 + x1371 >= 1
 c2741_neq1370_1371: - x1370 - x1371 >= -1
 c2742_neq1371_1372: x1371 + x1372 >= 1
 c2743_neq1371_1372: - x1371 - x1372 >= -1
 c2744_neq1372_1373: x1372 + x1373 >= 1
 c2745_neq1372_1373: - x1372 - x1373 >= -1
 c2746_neq1373_1374: x1373 + x1374 >= 1
 c2747_neq1373_1374: - x1373 - x1374 >= -1
 c2748_neq1374_1375: x1374 + x1375 >= 1
 c2749_neq1374_1375: - x1374 - x1375 >= -1
 c2750_neq1375_1376: x1375 + x1376 >= 1
 c2751_neq1375_1376: - x1375 - x1376 >= -1
 c2752_neq1376_1377: x1376 + x1377 >= 1
 c2753_neq1376_1377: - x1376 - x1377 >= -1
 c2754_neq1377_1378: x1377 + x1378 >= 1
 c2755_neq1377_1378: - x1377 - x1378 >= -1
 c2756_neq1378_1379: x1378 + x1379 >= 1
 c2757_neq1378_1379: - x1378 - x1379 >= -1
 c2758_neq1379_1380: x1379 + x1380 >= 1
 c2759_neq1379_1380: - x1379 - x1380 >= -1
 c2760_neq1380_1381: x1380 + x1381 >= 1
 c2761_neq1380_1381: - x1380 - x1381 >= -1
 c2762_neq1381_1382: x1381 + x1382 >= 1
 c2763_neq1381_1382: - x1381 - x1382 >= -1
 c2764_neq1382_1383: x1382 + x1383 >= 1
 c2765_neq1382_1383: - x1382 - x1383 >= -1
 c2766_neq1383_1384: x1383 + x1384 >= 1
 c2767_neq1383_1384: - x1383 - x1384 >= -1
 c2768_neq1384_1385: x1384 + x1385 >= 1
 c2769_neq1384_1385: - x1384 - x1385 >= -1
 c2770_neq1385_1386: x1385 + x1386 >= 1
 c2771_neq1385_1386: - x1385 - x1386 >= -1
 c2772_neq1386_1387: x1386 + x1387 >= 1
 c2773_neq1386_1387: - x1386 - x1387 >= -1
 c2774_neq1387_1388: x1387 + x1388 >= 1
 c2775_neq1387_1388: - x1387 - x1388 >= -1
 c2776_neq1388_1389: x1388 + x1389 >= 1
 c2777_neq1388_1389: - x1388 - x1389 >= -1
 c2778_neq1389_1390: x1389 + x1390 >= 1
 c2779_neq1389_1390: - x1389 - x1390 >= -1
 c2780_neq1390_1391: x1390 + x1391 >= 1
 c2781_neq1390_1391: - x1390 - x1391 >= -1
 c2782_neq1391_1392: x1391 + x1392 >= 1
 c2783_neq1391_1392: - x1391 - x1392 >= -1
 c2784_neq1392_1393: x1392 + x1393 >= 1
 c2785_neq1392_1393: - x1392 - x1393 >= -1
 c2786_neq1393_1394: x1393 + x1394 >= 1
 c2787_neq1393_1394: - x1393 - x1394 >= -1
 c2788_neq1394_1395: x1394 + x1395 >= 1
 c2789_neq1394_1395: - x1394 - x1395 >= -1
 c2790_neq1395_1396: x1395 + x1396 >= 1
 c2791_neq1395_1396: - x1395 - x1396 >= -1
 c2792_neq1396_1397: x1396 + x1397 >= 1
 c2793_neq1396_1397: - x1396 - x1397 >= -1
 c2794_neq1397_1398: x1397 + x1398 >= 1
 c2795_neq1397_1398: - x1397 - x1398 >= -1
 c2796_neq1398_1399: x1398 + x1399 >= 1
 c2797_neq1398_1399: - x1398 - x1399 >= -1
 c2798_neq1399_1400: x1399 + x1400 >= 1
 c2799_neq1399_1400: - x1399 - x1400 >= -1
 c2800_neq1400_1401: x1400 + x1401 >= 1
 c2801_neq1400_1401: - x1400 - x1401 >= -1
 c2802_neq1401_1402: x1401 + x1402 >= 1
 c2803_neq1401_1402: - x1401 - x1402 >= -1
 c2804_neq1402_1403: x1402 + x1403 >= 1
 c2805_neq1402_1403: - x1402 - x1403 >= -1
 c2806_neq1403_1404: x1403 + x1404 >= 1
 c2807_neq1403_1404: - x1403 - x1404 >= -1
 c2808_neq1404_1405: x1404 + x1405 >= 1
 c2809_neq1404_1405: - x1404 - x1405 >= -1
 c2810_neq1405_1406: x1405 + x1406 >= 1
 c2811_neq1405_1406: - x1405 - x1406 >= -1
 c2812_neq1406_1407: x1406 + x1407 >= 1
 c2813_neq1406_1407: - x1406 - x1407 >= -1
 c2814_neq1407_1408: x1407 + x1408 >= 1
 c2815_neq1407_1408: - x1407 - x1408 >= -1
 c2816_neq1408_1409: x1408 + x1409 >= 1
 c2817_neq1408_1409: - x1408 - x1409 >= -1
 c2818_neq1409_1410: x1409 + x1410 >= 1
 c2819_neq1409_1410: - x1409 - x1410 >= -1
 c2820_neq1410_1411: x1410 + x1411 >= 1
 c2821_neq1410_1411: - x1410 - x1411 >= -1
 c2822_neq1411_1412: x1411 + x1412 >= 1
 c2823_neq1411_1412: - x1411 - x1412 >= -1
 c2824_neq1412_1413: x1412 + x1413 >= 1
 c2825_neq1412_1413: - x1412 - x1413 >= -1
 c2826_neq1413_1414: x1413 + x1414 >= 1
 c2827_neq1413_1414: - x1413 - x1414 >= -1
 c2828_neq1414_1415: x1414 + x1415 >= 1
 c2829_neq1414_1415: - x1414 - x1415 >= -1
 c2830_neq1415_1416: x1415 + x1416 >= 1
 c2831_neq1415_1416: - x1415 - x1416 >= -1
 c2832_neq1416_1417: x1416 + x1417 >= 1
 c2833_neq1416_1417: - x1416 - x1417 >= -1
 c2834_neq1417_1418: x1417 + x1418 >= 1
 c2835_neq1417_1418: - x1417 - x1418 >= -1
 c2836_neq1418_1419: x1418 + x1419 >= 1
 c2837_neq1418_1419: - x1418 - x1419 >= -1
 c2838_neq1419_1420: x1419 + x1420 >= 1
 c2839_neq1419_1420: - x1419 - x1420 >= -1
 c2840_neq1420_1421: x1420 + x1421 >= 1
 c2841_neq1420_1421: - x1420 - x1421 >= -1
 c2842_neq1421_1422: x1421 + x1422 >= 1
 c2843_neq1421_1422: - x1421 - x1422 >= -1
 c2844_neq1422_1423: x1422 + x1423 >= 1
 c2845_neq1422_1423: - x1422 - x1423 >= -1
 c2846_neq1423_1424: x1423 + x1424 >= 1
 c2847_neq1423_1424: - x1423 - x1424 >= -1
 c2848_neq1424_1425: x1424 + x1425 >= 1
 c2849_neq1424_1425: - x1424 - x1425 >= -1
 c2850_neq1425_1426: x1425 + x1426 >= 1
 c2851_neq1425_1426: - x1425 - x1426 >= -1
 c2852_neq1426_1427: x1426 + x1427 >= 1
 c2853_neq1426_1427: - x1426 - x1427 >= -1
 c2854_neq1427_1428: x1427 + x1428 >= 1
 c2855_neq1427_1428: - x1427 - x1428 >= -1
 c2856_neq1428_1429: x1428 + x1429 >= 1
 c2857_neq1428_1429: - x1428 - x1429 >= -1
 c2858_neq1429_1430: x1429 + x1430 >= 1
 c2859_neq1429_1430: - x1429 - x1430 >= -1
 c2860_neq1430_1431: x1430 + x1431 >= 1
 c2861_neq1430_1431: - x1430 - x1431 >= -1
 c2862_neq1431_1432: x1431 + x1432 >= 1
 c2863_neq1431_1432: - x1431 - x1432 >= -1
 c2864_neq1432_1433: x1432 + x1433 >= 1
 c2865_neq1432_1433: - x1432 - x1433 >= -1
 c2866_neq1433_1434: x1433 + x1434 >= 1
 c2867_neq1433_1434: - x1433 - x1434 >= -1
 c2868_neq1434_1435: x1434 + x1435 >= 1
 c2869_neq1434_1435: - x1434 - x1435 >= -1
 c2870_neq1435_1436: x1435 + x1436 >= 1
 c2871_neq1435_1436: - x1435 - x1436 >= -1
 c2872_neq1436_1437: x1436 + x1437 >= 1
 c2873_neq1436_1437: - x1436 - x1437 >= -1
 c2874_neq1437_1438: x1437 + x1438 >= 1
 c2875_neq1437_1438: - x1437 - x1438 >= -1
 c2876_neq1438_1439: x1438 + x1439 >= 1
 c2877_neq1438_1439: - x1438 - x1439 >= -1
 c2878_neq1439_1440: x1439 + x1440 >= 1
 c2879_neq1439_1440: - x1439 - x1440 >= -1
 c2880_neq1440_1441: x1440 + x1441 >= 1
 c2881_neq1440_1441: - x1440 - x1441 >= -1
 c2882_neq1441_1442: x1441 + x1442 >= 1
 c2883_neq1441_1442: - x1441 - x1442 >= -1
 c2884_neq1442_1443: x1442 + x1443 >= 1
 c2885_neq1442_1443: - x1442 - x1443 >= -1
 c2886_neq1443_1444: x1443 + x1444 >= 1
 c2887_neq1443_1444: - x1443 - x1444 >= -1
 c2888_neq1444_1445: x1444 + x1445 >= 1
 c2889_neq1444_1445: - x1444 - x1445 >= -1
 c2890_neq1445_1446: x1445 + x1446 >= 1
 c2891_neq1445_1446: - x1445 - x1446 >= -1
 c2892_neq1446_1447: x1446 + x1447 >= 1
 c2893_neq1446_1447: - x1446 - x1447 >= -1
 c2894_neq1447_1448: x1447 + x1448 >= 1
 c2895_neq1447_1448: - x1447 - x1448 >= -1
 c2896_neq1448_1449: x1448 + x1449 >= 1
 c2897_neq1448_1449: - x1448 - x1449 >= -1
 c2898_neq1449_1450: x1449 + x1450 >= 1
 c2899_neq1449_1450: - x1449 - x1450 >= -1
 c2900_neq1450_1451: x1450 + x1451 >= 1
 c2901_neq1450_1451: - x1450 - x1451 >= -1
 c2902_neq1451_1452: x1451 + x1452 >= 1
 c2903_neq1451_1452: - x1451 - x1452 >= -1
 c2904_neq1452_1453: x1452 + x1453 >= 1
 c2905_neq1452_1453: - x1452 - x1453 >= -1
 c2906_neq1453_1454: x1453 + x1454 >= 1
 c2907_neq1453_1454: - x1453 - x1454 >= -1
 c2908_neq1454_1455: x1454 + x1455 >= 1
 c2909_neq1454_1455: - x1454 - x1455 >= -1
 c2910_neq1455_1456: x1455 + x1456 >= 1
 c2911_neq1455_1456: - x1455 - x1456 >= -1
 c2912_neq1456_1457: x1456 + x1457 >= 1
 c2913_neq1456_1457: - x1456 - x1457 >= -1
 c2914_neq1457_1458: x1457 + x1458 >= 1
 c2915_neq1457_1458: - x1457 - x1458 >= -1
 c2916_neq1458_1459: x1458 + x1459 >= 1
 c2917_neq1458_1459: - x1458 - x1459 >= -1
 c2918_neq1459_1460: x1459 + x1460 >= 1
 c2919_neq1459_1460: - x1459 - x1460 >= -1
 c2920_neq1460_1461: x1460 + x1461 >= 1
 c2921_neq1460_1461: - x1460 - x1461 >= -1
 c2922_neq1461_1462: x1461 + x1462 >= 1
 c2923_neq1461_1462: - x1461 - x1462 >= -1
 c2924_neq1462_1463: x1462 + x1463 >= 1
 c2925_neq1462_1463: - x1462 - x1463 >= -1
 c2926_neq1463_1464: x1463 + x1464 >= 1
 c2927_neq1463_1464: - x1463 - x1464 >= -1
 c2928_neq1464_1465: x1464 + x1465 >= 1
 c2929_neq1464_1465: - x1464 - x1465 >= -1
 c2930_neq1465_1466: x1465 + x1466 >= 1
 c2931_neq1465_1466: - x1465 - x1466 >= -1
 c2932_neq1466_1467: x1466 + x1467 >= 1
 c2933_neq1466_1467: - x1466 - x1467 >= -1
 c2934_neq1467_1468: x1467 + x1468 >= 1
 c2935_neq1467_1468: - x1467 - x1468 >= -1
 c2936_neq1468_1469: x1468 + x1469 >= 1
 c2937_neq1468_1469: - x1468 - x1469 >= -1
 c2938_neq1469_1470: x1469 + x1470 >= 1
 c2939_neq1469_1470: - x1469 - x1470 >= -1
 c2940_neq1470_1471: x1470 + x1471 >= 1
 c2941_neq1470_1471: - x1470 - x1471 >= -1
 c2942_neq1471_1472: x1471 + x1472 >= 1
 c2943_neq1471_1472: - x1471 - x1472 >= -1
 c2944_neq1472_1473: x1472 + x1473 >= 1
 c2945_neq1472_1473: - x1472 - x1473 >= -1
 c2946_neq1473_1474: x1473 + x1474 >= 1
 c2947_neq1473_1474: - x1473 - x1474 >= -1
 c2948_neq1474_1475: x1474 + x1475 >= 1
 c2949_neq1474_1475: - x1474 - x1475 >= -1
 c2950_neq1475_1476: x1475 + x1476 >= 1
 c2951_neq1475_1476: - x1475 - x1476 >= -1
 c2952_neq1476_1477: x1476 + x1477 >= 1
 c2953_neq1476_1477: - x1476 - x1477 >= -1
 c2954_neq1477_1478: x1477 + x1478 >= 1
 c2955_neq1477_1478: - x1477 - x1478 >= -1
 c2956_neq1478_1479: x1478 + x1479 >= 1
 c2957_neq1478_1479: - x1478 - x1479 >= -1
 c2958_neq1479_1480: x1479 + x1480 >= 1
 c2959_neq1479_1480: - x1479 - x1480 >= -1
 c2960_neq1480_1481: x1480 + x1481 >= 1
 c2961_neq1480_1481: - x1480 - x1481 >= -1
 c2962_neq1481_1482: x1481 + x1482 >= 1
 c2963_neq1481_1482: - x1481 - x1482 >= -1
 c2964_neq1482_1483: x1482 + x1483 >= 1
 c2965_neq1482_1483: - x1482 - x1483 >= -1
 c2966_neq1483_1484: x1483 + x1484 >= 1
 c2967_neq1483_1484: - x1483 - x1484 >= -1
 c2968_neq1484_1485: x1484 + x1485 >= 1
 c2969_neq1484_1485: - x1484 - x1485 >= -1
 c2970_neq1485_1486: x1485 + x1486 >= 1
 c2971_neq1485_1486: - x1485 - x1486 >= -1
 c2972_neq1486_1487: x1486 + x1487 >= 1
 c2973_neq1486_1487: - x1486 - x1487 >= -1
 c2974_neq1487_1488: x1487 + x1488 >= 1
 c2975_neq1487_1488: - x1487 - x1488 >= -1
 c2976_neq1488_1489: x1488 + x1489 >= 1
 c2977_neq1488_1489: - x1488 - x1489 >= -1
 c2978_neq1489_1490: x1489 + x1490 >= 1
 c2979_neq1489_1490: - x1489 - x1490 >= -1
 c2980_neq1490_1491: x1490 + x1491 >= 1
 c2981_neq1490_1491: - x1490 - x1491 >= -1
 c2982_neq1491_1492: x1491 + x1492 >= 1
 c2983_neq1491_1492: - x1491 - x1492 >= -1
 c2984_neq1492_1493: x1492 + x1493 >= 1
 c2985_neq1492_1493: - x1492 - x1493 >= -1
 c2986_neq1493_1494: x1493 + x1494 >= 1
 c2987_neq1493_1494: - x1493 - x1494 >= -1
 c2988_neq1494_1495: x1494 + x1495 >= 1
 c2989_neq1494_1495: - x1494 - x1495 >= -1
 c2990_neq1495_1496: x1495 + x1496 >= 1
 c2991_neq1495_1496: - x1495 - x1496 >= -1
 c2992_neq1496_1497: x1496 + x1497 >= 1
 c2993_neq1496_1497: - x1496 - x1497 >= -1
 c2994_neq1497_1498: x1497 + x1498 >= 1
 c2995_neq1497_1498: - x1497 - x1498 >= -1
 c2996_neq1498_1499: x1498 + x1499 >= 1
 c2997_neq1498_1499: - x1498 - x1499 >= -1
 c2998_neq1499_1500: x1499 + x1500 >= 1
 c2999_neq1499_1500: - x1499 - x1500 >= -1
 c3000_neq1500_1501: x1500 + x1501 >= 1
 c3001_neq1500_1501: - x1500 - x1501 >= -1
 c3002_neq1501_1502: x1501 + x1502 >= 1
 c3003_neq1501_1502: - x1501 - x1502 >= -1
 c3004_neq1502_1503: x1502 + x1503 >= 1
 c3005_neq1502_1503: - x1502 - x1503 >= -1
 c3006_neq1503_1504: x1503 + x1504 >= 1
 c3007_neq1503_1504: - x1503 - x1504 >= -1
 c3008_neq1504_1505: x1504 + x1505 >= 1
 c3009_neq1504_1505: - x1504 - x1505 >= -1
 c3010_neq1505_1506: x1505 + x1506 >= 1
 c3011_neq1505_1506: - x1505 - x1506 >= -1
 c3012_neq1506_1507: x1506 + x1507 >= 1
 c3013_neq1506_1507: - x1506 - x1507 >= -1
 c3014_neq1507_1508: x1507 + x1508 >= 1
 c3015_neq1507_1508: - x1507 - x1508 >= -1
 c3016_neq1508_1509: x1508 + x1509 >= 1
 c3017_neq1508_1509: - x1508 - x1509 >= -1
 c3018_neq1509_1510: x1509 + x1510 >= 1
 c3019_neq1509_1510: - x1509 - x1510 >= -1
 c3020_neq1510_1511: x1510 + x1511 >= 1
 c3021_neq1510_1511: - x1510 - x1511 >= -1
 c3022_neq1511_1512: x1511 + x1512 >= 1
 c3023_neq1511_1512: - x1511 - x1512 >= -1
 c3024_neq1512_1513: x1512 + x1513 >= 1
 c3025_neq1512_1513: - x1512 - x1513 >= -1
 c3026_neq1513_1514: x1513 + x1514 >= 1
 c3027_neq1513_1514: - x1513 - x1514 >= -1
 c3028_neq1514_1515: x1514 + x1515 >= 1
 c3029_neq1514_1515: - x1514 - x1515 >= -1
 c3030_neq1515_1516: x1515 + x1516 >= 1
 c3031_neq1515_1516: - x1515 - x1516 >= -1
 c3032_neq1516_1517: x1516 + x1517 >= 1
 c3033_neq1516_1517: - x1516 - x1517 >= -1
 c3034_neq1517_1518: x1517 + x1518 >= 1
 c3035_neq1517_1518: - x1517 - x1518 >= -1
 c3036_neq1518_1519: x1518 + x1519 >= 1
 c3037_neq1518_1519: - x1518 - x1519 >= -1
 c3038_neq1519_1520: x1519 + x1520 >= 1
 c3039_neq1519_1520: - x1519 - x1520 >= -1
 c3040_neq1520_1521: x1520 + x1521 >= 1
 c3041_neq1520_1521: - x1520 - x1521 >= -1
 c3042_neq1521_1522: x1521 + x1522 >= 1
 c3043_neq1521_1522: - x1521 - x1522 >= -1
 c3044_neq1522_1523: x1522 + x1523 >= 1
 c3045_neq1522_1523: - x1522 - x1523 >= -1
 c3046_neq1523_1524: x1523 + x1524 >= 1
 c3047_neq1523_1524: - x1523 - x1524 >= -1
 c3048_neq1524_1525: x1524 + x1525 >= 1
 c3049_neq1524_1525: - x1524 - x1525 >= -1
 c3050_neq1525_1526: x1525 + x1526 >= 1
 c3051_neq1525_1526: - x1525 - x1526 >= -1
 c3052_neq1526_1527: x1526 + x1527 >= 1
 c3053_neq1526_1527: - x1526 - x1527 >= -1
 c3054_neq1527_1528: x1527 + x1528 >= 1
 c3055_neq1527_1528: - x1527 - x1528 >= -1
 c3056_neq1528_1529: x1528 + x1529 >= 1
 c3057_neq1528_1529: - x1528 - x1529 >= -1
 c3058_neq1529_1530: x1529 + x1530 >= 1
 c3059_neq1529_1530: - x1529 - x1530 >= -1
 c3060_neq1530_1531: x1530 + x1531 >= 1
 c3061_neq1530_1531: - x1530 - x1531 >= -1
 c3062_neq1531_1532: x1531 + x1532 >= 1
 c3063_neq1531_1532: - x1531 - x1532 >= -1
 c3064_neq1532_1533: x1532 + x1533 >= 1
 c3065_neq1532_1533: - x1532 - x1533 >= -1
 c3066_neq1533_1534: x1533 + x1534 >= 1
 c3067_neq1533_1534: - x1533 - x1534 >= -1
 c3068_neq1534_1535: x1534 + x1535 >= 1
 c3069_neq1534_1535: - x1534 - x1535 >= -1
 c3070_neq1535_1536: x1535 + x1536 >= 1
 c3071_neq1535_1536: - x1535 - x1536 >= -1
 c3072_neq1536_1537: x1536 + x1537 >= 1
 c3073_neq1536_1537: - x1536 - x1537 >= -1
 c3074_neq1537_1538: x1537 + x1538 >= 1
 c3075_neq1537_1538: - x1537 - x1538 >= -1
 c3076_neq1538_1539: x1538 + x1539 >= 1
 c3077_neq1538_1539: - x1538 - x1539 >= -1
 c3078_neq1539_1540: x1539 + x1540 >= 1
 c3079_neq1539_1540: - x1539 - x1540 >= -1
 c3080_neq1540_1541: x1540 + x1541 >= 1
 c3081_neq1540_1541: - x1540 - x1541 >= -1
 c3082_neq1541_1542: x1541 + x1542 >= 1
 c3083_neq1541_1542: - x1541 - x1542 >= -1
 c3084_neq1542_1543: x1542 + x1543 >= 1
 c3085_neq1542_1543: - x1542 - x1543 >= -1
 c3086_neq1543_1544: x1543 + x1544 >= 1
 c3087_neq1543_1544: - x1543 - x1544 >= -1
 c3088_neq1544_1545: x1544 + x1545 >= 1
 c3089_neq1544_1545: - x1544 - x1545 >= -1
 c3090_neq1545_1546: x1545 + x1546 >= 1
 c3091_neq1545_1546: - x1545 - x1546 >= -1
 c3092_neq1546_1547: x1546 + x1547 >= 1
 c3093_neq1546_1547: - x1546 - x1547 >= -1
 c3094_neq1547_1548: x1547 + x1548 >= 1
 c3095_neq1547_1548: - x1547 - x1548 >= -1
 c3096_neq1548_1549: x1548 + x1549 >= 1
 c3097_neq1548_1549: - x1548 - x1549 >= -1
 c3098_neq1549_1550: x1549 + x1550 >= 1
 c3099_neq1549_1550: - x1549 - x1550 >= -1
 c3100_neq1550_1551: x1550 + x1551 >= 1
 c3101_neq1550_1551: - x1550 - x1551 >= -1
 c3102_neq1551_1552: x1551 + x1552 >= 1
 c3103_neq1551_1552: - x1551 - x1552 >= -1
 c3104_neq1552_1553: x1552 + x1553 >= 1
 c3105_neq1552_1553: - x1552 - x1553 >= -1
 c3106_neq1553_1554: x1553 + x1554 >= 1
 c3107_neq1553_1554: - x1553 - x1554 >= -1
 c3108_neq1554_1555: x1554 + x1555 >= 1
 c3109_neq1554_1555: - x1554 - x1555 >= -1
 c3110_neq1555_1556: x1555 + x1556 >= 1
 c3111_neq1555_1556: - x1555 - x1556 >= -1
 c3112_neq1556_1557: x1556 + x1557 >= 1
 c3113_neq1556_1557: - x1556 - x1557 >= -1
 c3114_neq1557_1558: x1557 + x1558 >= 1
 c3115_neq1557_1558: - x1557 - x1558 >= -1
 c3116_neq1558_1559: x1558 + x1559 >= 1
 c3117_neq1558_1559: - x1558 - x1559 >= -1
 c3118_neq1559_1560: x1559 + x1560 >= 1
 c3119_neq1559_1560: - x1559 - x1560 >= -1
 c3120_neq1560_1561: x1560 + x1561 >= 1
 c3121_neq1560_1561: - x1560 - x1561 >= -1
 c3122_neq1561_1562: x1561 + x1562 >= 1
 c3123_neq1561_1562: - x1561 - x1562 >= -1
 c3124_neq1562_1563: x1562 + x1563 >= 1
 c3125_neq1562_1563: - x1562 - x1563 >= -1
 c3126_neq1563_1564: x1563 + x1564 >= 1
 c3127_neq1563_1564: - x1563 - x1564 >= -1
 c3128_neq1564_1565: x1564 + x1565 >= 1
 c3129_neq1564_1565: - x1564 - x1565 >= -1
 c3130_neq1565_1566: x1565 + x1566 >= 1
 c3131_neq1565_1566: - x1565 - x1566 >= -1
 c3132_neq1566_1567: x1566 + x1567 >= 1
 c3133_neq1566_1567: - x1566 - x1567 >= -1
 c3134_neq1567_1568: x1567 + x1568 >= 1
 c3135_neq1567_1568: - x1567 - x1568 >= -1
 c3136_neq1568_1569: x1568 + x1569 >= 1
 c3137_neq1568_1569: - x1568 - x1569 >= -1
 c3138_neq1569_1570: x1569 + x1570 >= 1
 c3139_neq1569_1570: - x1569 - x1570 >= -1
 c3140_neq1570_1571: x1570 + x1571 >= 1
 c3141_neq1570_1571: - x1570 - x1571 >= -1
 c3142_neq1571_1572: x1571 + x1572 >= 1
 c3143_neq1571_1572: - x1571 - x1572 >= -1
 c3144_neq1572_1573: x1572 + x1573 >= 1
 c3145_neq1572_1573: - x1572 - x1573 >= -1
 c3146_neq1573_1574: x1573 + x1574 >= 1
 c3147_neq1573_1574: - x1573 - x1574 >= -1
 c3148_neq1574_1575: x1574 + x1575 >= 1
 c3149_neq1574_1575: - x1574 - x1575 >= -1
 c3150_neq1575_1576: x1575 + x1576 >= 1
 c3151_neq1575_1576: - x1575 - x1576 >= -1
 c3152_neq1576_1577: x1576 + x1577 >= 1
 c3153_neq1576_1577: - x1576 - x1577 >= -1
 c3154_neq1577_1578: x1577 + x1578 >= 1
 c3155_neq1577_1578: - x1577 - x1578 >= -1
 c3156_neq1578_1579: x1578 + x1579 >= 1
 c3157_neq1578_1579: - x1578 - x1579 >= -1
 c3158_neq1579_1580: x1579 + x1580 >= 1
 c3159_neq1579_1580: - x1579 - x1580 >= -1
 c3160_neq1580_1581: x1580 + x1581 >= 1
 c3161_neq1580_1581: - x1580 - x1581 >= -1
 c3162_neq1581_1582: x1581 + x1582 >= 1
 c3163_neq1581_1582: - x1581 - x1582 >= -1
 c3164_neq1582_1583: x1582 + x1583 >= 1
 c3165_neq1582_1583: - x1582 - x1583 >= -1
 c3166_neq1583_1584: x1583 + x1584 >= 1
 c3167_neq1583_1584: - x1583 - x1584 >= -1
 c3168_neq1584_1585: x1584 + x1585 >= 1
 c3169_neq1584_1585: - x1584 - x1585 >= -1
 c3170_neq1585_1586: x1585 + x1586 >= 1
 c3171_neq1585_1586: - x1585 - x1586 >= -1
 c3172_neq1586_1587: x1586 + x1587 >= 1
 c3173_neq1586_1587: - x1586 - x1587 >= -1
 c3174_neq1587_1588: x1587 + x1588 >= 1
 c3175_neq1587_1588: - x1587 - x1588 >= -1
 c3176_neq1588_1589: x1588 + x1589 >= 1
 c3177_neq1588_1589: - x1588 - x1589 >= -1
 c3178_neq1589_1590: x1589 + x1590 >= 1
 c3179_neq1589_1590: - x1589 - x1590 >= -1
 c3180_neq1590_1591: x1590 + x1591 >= 1
 c3181_neq1590_1591: - x1590 - x1591 >= -1
 c3182_neq1591_1592: x1591 + x1592 >= 1
 c3183_neq1591_1592: - x1591 - x1592 >= -1
 c3184_neq1592_1593: x1592 + x1593 >= 1
 c3185_neq1592_1593: - x1592 - x1593 >= -1
 c3186_neq1593_1594: x1593 + x1594 >= 1
 c3187_neq1593_1594: - x1593 - x1594 >= -1
 c3188_neq1594_1595: x1594 + x1595 >= 1
 c3189_neq1594_1595: - x1594 - x1595 >= -1
 c3190_neq1595_1596: x1595 + x1596 >= 1
 c3191_neq1595_1596: - x1595 - x1596 >= -1
 c3192_neq1596_1597: x1596 + x1597 >= 1
 c3193_neq1596_1597: - x1596 - x1597 >= -1
 c3194_neq1597_1598: x1597 + x1598 >= 1
 c3195_neq1597_1598: - x1597 - x1598 >= -1
 c3196_neq1598_1599: x1598 + x1599 >= 1
 c3197_neq1598_1599: - x1598 - x1599 >= -1
 c3198_neq1599_1600: x1599 + x1600 >= 1
 c3199_neq1599_1600: - x1599 - x1600 >= -1
 c3200_neq1600_1601: x1600 + x1601 >= 1
 c3201_neq1600_1601: - x1600 - x1601 >= -1
 c3202_neq1601_1602: x1601 + x1602 >= 1
 c3203_neq1601_1602: - x1601 - x1602 >= -1
 c3204_neq1602_1603: x1602 + x1603 >= 1
 c3205_neq1602_1603: - x1602 - x1603 >= -1
 c3206_neq1603_1604: x1603 + x1604 >= 1
 c3207_neq1603_1604: - x1603 - x1604 >= -1
 c3208_neq1604_1605: x1604 + x1605 >= 1
 c3209_neq1604_1605: - x1604 - x1605 >= -1
 c3210_neq1605_1606: x1605 + x1606 >= 1
 c3211_neq1605_1606: - x1605 - x1606 >= -1
 c3212_neq1606_1607: x1606 + x1607 >= 1
 c3213_neq1606_1607: - x1606 - x1607 >= -1
 c3214_neq1607_1608: x1607 + x1608 >= 1
 c3215_neq1607_1608: - x1607 - x1608 >= -1
 c3216_neq1608_1609: x1608 + x1609 >= 1
 c3217_neq1608_1609: - x1608 - x1609 >= -1
 c3218_neq1609_1610: x1609 + x1610 >= 1
 c3219_neq1609_1610: - x1609 - x1610 >= -1
 c3220_neq1610_1611: x1610 + x1611 >= 1
 c3221_neq1610_1611: - x1610 - x1611 >= -1
 c3222_neq1611_1612: x1611 + x1612 >= 1
 c3223_neq1611_1612: - x1611 - x1612 >= -1
 c3224_neq1612_1613: x1612 + x1613 >= 1
 c3225_neq1612_1613: - x1612 - x1613 >= -1
 c3226_neq1613_1614: x1613 + x1614 >= 1
 c3227_neq1613_1614: - x1613 - x1614 >= -1
 c3228_neq1614_1615: x1614 + x1615 >= 1
 c3229_neq1614_1615: - x1614 - x1615 >= -1
 c3230_neq1615_1616: x1615 + x1616 >= 1
 c3231_neq1615_1616: - x1615 - x1616 >= -1
 c3232_neq1616_1617: x1616 + x1617 >= 1
 c3233_neq1616_1617: - x1616 - x1617 >= -1
 c3234_neq1617_1618: x1617 + x1618 >= 1
 c3235_neq1617_1618: - x1617 - x1618 >= -1
 c3236_neq1618_1619: x1618 + x1619 >= 1
 c3237_neq1618_1619: - x1618 - x1619 >= -1
 c3238_neq1619_1620: x1619 + x1620 >= 1
 c3239_neq1619_1620: - x1619 - x1620 >= -1
 c3240_neq1620_1621: x1620 + x1621 >= 1
 c3241_neq1620_1621: - x1620 - x1621 >= -1
 c3242_neq1621_1622: x1621 + x1622 >= 1
 c3243_neq1621_1622: - x1621 - x1622 >= -1
 c3244_neq1622_1623: x1622 + x1623 >= 1
 c3245_neq1622_1623: - x1622 - x1623 >= -1
 c3246_neq1623_1624: x1623 + x1624 >= 1
 c3247_neq1623_1624: - x1623 - x1624 >= -1
 c3248_neq1624_1625: x1624 + x1625 >= 1
 c3249_neq1624_1625: - x1624 - x1625 >= -1
 c3250_neq1625_1626: x1625 + x1626 >= 1
 c3251_neq1625_1626: - x1625 - x1626 >= -1
 c3252_neq1626_1627: x1626 + x1627 >= 1
 c3253_neq1626_1627: - x1626 - x1627 >= -1
 c3254_neq1627_1628: x1627 + x1628 >= 1
 c3255_neq1627_1628: - x1627 - x1628 >= -1
 c3256_neq1628_1629: x1628 + x1629 >= 1
 c3257_neq1628_1629: - x1628 - x1629 >= -1
 c3258_neq1629_1630: x1629 + x1630 >= 1
 c3259_neq1629_1630: - x1629 - x1630 >= -1
 c3260_neq1630_1631: x1630 + x1631 >= 1
 c3261_neq1630_1631: - x1630 - x1631 >= -1
 c3262_neq1631_1632: x1631 + x1632 >= 1
 c3263_neq1631_1632: - x1631 - x1632 >= -1
 c3264_neq1632_1633: x1632 + x1633 >= 1
 c3265_neq1632_1633: - x1632 - x1633 >= -1
 c3266_neq1633_1634: x1633 + x1634 >= 1
 c3267_neq1633_1634: - x1633 - x1634 >= -1
 c3268_neq1634_1635: x1634 + x1635 >= 1
 c3269_neq1634_1635: - x1634 - x1635 >= -1
 c3270_neq1635_1636: x1635 + x1636 >= 1
 c3271_neq1635_1636: - x1635 - x1636 >= -1
 c3272_neq1636_1637: x1636 + x1637 >= 1
 c3273_neq1636_1637: - x1636 - x1637 >= -1
 c3274_neq1637_1638: x1637 + x1638 >= 1
 c3275_neq1637_1638: - x1637 - x1638 >= -1
 c3276_neq1638_1639: x1638 + x1639 >= 1
 c3277_neq1638_1639: - x1638 - x1639 >= -1
 c3278_neq1639_1640: x1639 + x1640 >= 1
 c3279_neq1639_1640: - x1639 - x1640 >= -1
 c3280_neq1640_1641: x1640 + x1641 >= 1
 c3281_neq1640_1641: - x1640 - x1641 >= -1
 c3282_neq1641_1642: x1641 + x1642 >= 1
 c3283_neq1641_1642: - x1641 - x1642 >= -1
 c3284_neq1642_1643: x1642 + x1643 >= 1
 c3285_neq1642_1643: - x1642 - x1643 >= -1
 c3286_neq1643_1644: x1643 + x1644 >= 1
 c3287_neq1643_1644: - x1643 - x1644 >= -1
 c3288_neq1644_1645: x1644 + x1645 >= 1
 c3289_neq1644_1645: - x1644 - x1645 >= -1
 c3290_neq1645_1646: x1645 + x1646 >= 1
 c3291_neq1645_1646: - x1645 - x1646 >= -1
 c3292_neq1646_1647: x1646 + x1647 >= 1
 c3293_neq1646_1647: - x1646 - x1647 >= -1
 c3294_neq1647_1648: x1647 + x1648 >= 1
 c3295_neq1647_1648: - x1647 - x1648 >= -1
 c3296_neq1648_1649: x1648 + x1649 >= 1
 c3297_neq1648_1649: - x1648 - x1649 >= -1
 c3298_neq1649_1650: x1649 + x1650 >= 1
 c3299_neq1649_1650: - x1649 - x1650 >= -1
 c3300_neq1650_1651: x1650 + x1651 >= 1
 c3301_neq1650_1651: - x1650 - x1651 >= -1
 c3302_neq1651_1652: x1651 + x1652 >= 1
 c3303_neq1651_1652: - x1651 - x1652 >= -1
 c3304_neq1652_1653: x1652 + x1653 >= 1
 c3305_neq1652_1653: - x1652 - x1653 >= -1
 c3306_neq1653_1654: x1653 + x1654 >= 1
 c3307_neq1653_1654: - x1653 - x1654 >= -1
 c3308_neq1654_1655: x1654 + x1655 >= 1
 c3309_neq1654_1655: - x1654 - x1655 >= -1
 c3310_neq1655_1656: x1655 + x1656 >= 1
 c3311_neq1655_1656: - x1655 - x1656 >= -1
 c3312_neq1656_1657: x1656 + x1657 >= 1
 c3313_neq1656_1657: - x1656 - x1657 >= -1
 c3314_neq1657_1658: x1657 + x1658 >= 1
 c3315_neq1657_1658: - x1657 - x1658 >= -1
 c3316_neq1658_1659: x1658 + x1659 >= 1
 c3317_neq1658_1659: - x1658 - x1659 >= -1
 c3318_neq1659_1660: x1659 + x1660 >= 1
 c3319_neq1659_1660: - x1659 - x1660 >= -1
 c3320_neq1660_1661: x1660 + x1661 >= 1
 c3321_neq1660_1661: - x1660 - x1661 >= -1
 c3322_neq1661_1662: x1661 + x1662 >= 1
 c3323_neq1661_1662: - x1661 - x1662 >= -1
 c3324_neq1662_1663: x1662 + x1663 >= 1
 c3325_neq1662_1663: - x1662 - x1663 >= -1
 c3326_neq1663_1664: x1663 + x1664 >= 1
 c3327_neq1663_1664: - x1663 - x1664 >= -1
 c3328_neq1664_1665: x1664 + x1665 >= 1
 c3329_neq1664_1665: - x1664 - x1665 >= -1
 c3330_neq1665_1666: x1665 + x1666 >= 1
 c3331_neq1665_1666: - x1665 - x1666 >= -1
 c3332_neq1666_1667: x1666 + x1667 >= 1
 c3333_neq1666_1667: - x1666 - x1667 >= -1
 c3334_neq1667_1668: x1667 + x1668 >= 1
 c3335_neq1667_1668: - x1667 - x1668 >= -1
 c3336_neq1668_1669: x1668 + x1669 >= 1
 c3337_neq1668_1669: - x1668 - x1669 >= -1
 c3338_neq1669_1670: x1669 + x1670 >= 1
 c3339_neq1669_1670: - x1669 - x1670 >= -1
 c3340_neq1670_1671: x1670 + x1671 >= 1
 c3341_neq1670_1671: - x1670 - x1671 >= -1
 c3342_neq1671_1672: x1671 + x1672 >= 1
 c3343_neq1671_1672: - x1671 - x1672 >= -1
 c3344_neq1672_1673: x1672 + x1673 >= 1
 c3345_neq1672_1673: - x1672 - x1673 >= -1
 c3346_neq1673_1674: x1673 + x1674 >= 1
 c3347_neq1673_1674: - x1673 - x1674 >= -1
 c3348_neq1674_1675: x1674 + x1675 >= 1
 c3349_neq1674_1675: - x1674 - x1675 >= -1
 c3350_neq1675_1676: x1675 + x1676 >= 1
 c3351_neq1675_1676: - x1675 - x1676 >= -1
 c3352_neq1676_1677: x1676 + x1677 >= 1
 c3353_neq1676_1677: - x1676 - x1677 >= -1
 c3354_neq1677_1678: x1677 + x1678 >= 1
 c3355_neq1677_1678: - x1677 - x1678 >= -1
 c3356_neq1678_1679: x1678 + x1679 >= 1
 c3357_neq1678_1679: - x1678 - x1679 >= -1
 c3358_neq1679_1680: x1679 + x1680 >= 1
 c3359_neq1679_1680: - x1679 - x1680 >= -1
 c3360_neq1680_1681: x1680 + x1681 >= 1
 c3361_neq1680_1681: - x1680 - x1681 >= -1
 c3362_neq1681_1682: x1681 + x1682 >= 1
 c3363_neq1681_1682: - x1681 - x1682 >= -1
 c3364_neq1682_1683: x1682 + x1683 >= 1
 c3365_neq1682_1683: - x1682 - x1683 >= -1
 c3366_neq1683_1684: x1683 + x1684 >= 1
 c3367_neq1683_1684: - x1683 - x1684 >= -1
 c3368_neq1684_1685: x1684 + x1685 >= 1
 c3369_neq1684_1685: - x1684 - x1685 >= -1
 c3370_neq1685_1686: x1685 + x1686 >= 1
 c3371_neq1685_1686: - x1685 - x1686 >= -1
 c3372_neq1686_1687: x1686 + x1687 >= 1
 c3373_neq1686_1687: - x1686 - x1687 >= -1
 c3374_neq1687_1688: x1687 + x1688 >= 1
 c3375_neq1687_1688: - x1687 - x1688 >= -1
 c3376_neq1688_1689: x1688 + x1689 >= 1
 c3377_neq1688_1689: - x1688 - x1689 >= -1
 c3378_neq1689_1690: x1689 + x1690 >= 1
 c3379_neq1689_1690: - x1689 - x1690 >= -1
 c3380_neq1690_1691: x1690 + x1691 >= 1
 c3381_neq1690_1691: - x1690 - x1691 >= -1
 c3382_neq1691_1692: x1691 + x1692 >= 1
 c3383_neq1691_1692: - x1691 - x1692 >= -1
 c3384_neq1692_1693: x1692 + x1693 >= 1
 c3385_neq1692_1693: - x1692 - x1693 >= -1
 c3386_neq1693_1694: x1693 + x1694 >= 1
 c3387_neq1693_1694: - x1693 - x1694 >= -1
 c3388_neq1694_1695: x1694 + x1695 >= 1
 c3389_neq1694_1695: - x1694 - x1695 >= -1
 c3390_neq1695_1696: x1695 + x1696 >= 1
 c3391_neq1695_1696: - x1695 - x1696 >= -1
 c3392_neq1696_1697: x1696 + x1697 >= 1
 c3393_neq1696_1697: - x1696 - x1697 >= -1
 c3394_neq1697_1698: x1697 + x1698 >= 1
 c3395_neq1697_1698: - x1697 - x1698 >= -1
 c3396_neq1698_1699: x1698 + x1699 >= 1
 c3397_neq1698_1699: - x1698 - x1699 >= -1
 c3398_neq1699_1700: x1699 + x1700 >= 1
 c3399_neq1699_1700: - x1699 - x1700 >= -1
 c3400_neq1700_1701: x1700 + x1701 >= 1
 c3401_neq1700_1701: - x1700 - x1701 >= -1
 c3402_neq1701_1702: x1701 + x1702 >= 1
 c3403_neq1701_1702: - x1701 - x1702 >= -1
 c3404_neq1702_1703: x1702 + x1703 >= 1
 c3405_neq1702_1703: - x1702 - x1703 >= -1
 c3406_neq1703_1704: x1703 + x1704 >= 1
 c3407_neq1703_1704: - x1703 - x1704 >= -1
 c3408_neq1704_1705: x1704 + x1705 >= 1
 c3409_neq1704_1705: - x1704 - x1705 >= -1
 c3410_neq1705_1706: x1705 + x1706 >= 1
 c3411_neq1705_1706: - x1705 - x1706 >= -1
 c3412_neq1706_1707: x1706 + x1707 >= 1
 c3413_neq1706_1707: - x1706 - x1707 >= -1
 c3414_neq1707_1708: x1707 + x1708 >= 1
 c3415_neq1707_1708: - x1707 - x1708 >= -1
 c3416_neq1708_1709: x1708 + x1709 >= 1
 c3417_neq1708_1709: - x1708 - x1709 >= -1
 c3418_neq1709_1710: x1709 + x1710 >= 1
 c3419_neq1709_1710: - x1709 - x1710 >= -1
 c3420_neq1710_1711: x1710 + x1711 >= 1
 c3421_neq1710_1711: - x1710 - x1711 >= -1
 c3422_neq1711_1712: x1711 + x1712 >= 1
 c3423_neq1711_1712: - x1711 - x1712 >= -1
 c3424_neq1712_1713: x1712 + x1713 >= 1
 c3425_neq1712_1713: - x1712 - x1713 >= -1
 c3426_neq1713_1714: x1713 + x1714 >= 1
 c3427_neq1713_1714: - x1713 - x1714 >= -1
 c3428_neq1714_1715: x1714 + x1715 >= 1
 c3429_neq1714_1715: - x1714 - x1715 >= -1
 c3430_neq1715_1716: x1715 + x1716 >= 1
 c3431_neq1715_1716: - x1715 - x1716 >= -1
 c3432_neq1716_1717: x1716 + x1717 >= 1
 c3433_neq1716_1717: - x1716 - x1717 >= -1
 c3434_neq1717_1718: x1717 + x1718 >= 1
 c3435_neq1717_1718: - x1717 - x1718 >= -1
 c3436_neq1718_1719: x1718 + x1719 >= 1
 c3437_neq1718_1719: - x1718 - x1719 >= -1
 c3438_neq1719_1720: x1719 + x1720 >= 1
 c3439_neq1719_1720: - x1719 - x1720 >= -1
 c3440_neq1720_1721: x1720 + x1721 >= 1
 c3441_neq1720_1721: - x1720 - x1721 >= -1
 c3442_neq1721_1722: x1721 + x1722 >= 1
 c3443_neq1721_1722: - x1721 - x1722 >= -1
 c3444_neq1722_1723: x1722 + x1723 >= 1
 c3445_neq1722_1723: - x1722 - x1723 >= -1
 c3446_neq1723_1724: x1723 + x1724 >= 1
 c3447_neq1723_1724: - x1723 - x1724 >= -1
 c3448_neq1724_1725: x1724 + x1725 >= 1
 c3449_neq1724_1725: - x1724 - x1725 >= -1
 c3450_neq1725_1726: x1725 + x1726 >= 1
 c3451_neq1725_1726: - x1725 - x1726 >= -1
 c3452_neq1726_1727: x1726 + x1727 >= 1
 c3453_neq1726_1727: - x1726 - x1727 >= -1
 c3454_neq1727_1728: x1727 + x1728 >= 1
 c3455_neq1727_1728: - x1727 - x1728 >= -1
 c3456_neq1728_1729: x1728 + x1729 >= 1
 c3457_neq1728_1729: - x1728 - x1729 >= -1
 c3458_neq1729_1730: x1729 + x1730 >= 1
 c3459_neq1729_1730: - x1729 - x1730 >= -1
 c3460_neq1730_1731: x1730 + x1731 >= 1
 c3461_neq1730_1731: - x1730 - x1731 >= -1
 c3462_neq1731_1732: x1731 + x1732 >= 1
 c3463_neq1731_1732: - x1731 - x1732 >= -1
 c3464_neq1732_1733: x1732 + x1733 >= 1
 c3465_neq1732_1733: - x1732 - x1733 >= -1
 c3466_neq1733_1734: x1733 + x1734 >= 1
 c3467_neq1733_1734: - x1733 - x1734 >= -1
 c3468_neq1734_1735: x1734 + x1735 >= 1
 c3469_neq1734_1735: - x1734 - x1735 >= -1
 c3470_neq1735_1736: x1735 + x1736 >= 1
 c3471_neq1735_1736: - x1735 - x1736 >= -1
 c3472_neq1736_1737: x1736 + x1737 >= 1
 c3473_neq1736_1737: - x1736 - x1737 >= -1
 c3474_neq1737_1738: x1737 + x1738 >= 1
 c3475_neq1737_1738: - x1737 - x1738 >= -1
 c3476_neq1738_1739: x1738 + x1739 >= 1
 c3477_neq1738_1739: - x1738 - x1739 >= -1
 c3478_neq1739_1740: x1739 + x1740 >= 1
 c3479_neq1739_1740: - x1739 - x1740 >= -1
 c3480_neq1740_1741: x1740 + x1741 >= 1
 c3481_neq1740_1741: - x1740 - x1741 >= -1
 c3482_neq1741_1742: x1741 + x1742 >= 1
 c3483_neq1741_1742: - x1741 - x1742 >= -1
 c3484_neq1742_1743: x1742 + x1743 >= 1
 c3485_neq1742_1743: - x1742 - x1743 >= -1
 c3486_neq1743_1744: x1743 + x1744 >= 1
 c3487_neq1743_1744: - x1743 - x1744 >= -1
 c3488_neq1744_1745: x1744 + x1745 >= 1
 c3489_neq1744_1745: - x1744 - x1745 >= -1
 c3490_neq1745_1746: x1745 + x1746 >= 1
 c3491_neq1745_1746: - x1745 - x1746 >= -1
 c3492_neq1746_1747: x1746 + x1747 >= 1
 c3493_neq1746_1747: - x1746 - x1747 >= -1
 c3494_neq1747_1748: x1747 + x1748 >= 1
 c3495_neq1747_1748: - x1747 - x1748 >= -1
 c3496_neq1748_1749: x1748 + x1749 >= 1
 c3497_neq1748_1749: - x1748 - x1749 >= -1
 c3498_neq1749_1750: x1749 + x1750 >= 1
 c3499_neq1749_1750: - x1749 - x1750 >= -1
 c3500_neq1750_1751: x1750 + x1751 >= 1
 c3501_neq1750_1751: - x1750 - x1751 >= -1
 c3502_neq1751_1752: x1751 + x1752 >= 1
 c3503_neq1751_1752: - x1751 - x1752 >= -1
 c3504_neq1752_1753: x1752 + x1753 >= 1
 c3505_neq1752_1753: - x1752 - x1753 >= -1
 c3506_neq1753_1754: x1753 + x1754 >= 1
 c3507_neq1753_1754: - x1753 - x1754 >= -1
 c3508_neq1754_1755: x1754 + x1755 >= 1
 c3509_neq1754_1755: - x1754 - x1755 >= -1
 c3510_neq1755_1756: x1755 + x1756 >= 1
 c3511_neq1755_1756: - x1755 - x1756 >= -1
 c3512_neq1756_1757: x1756 + x1757 >= 1
 c3513_neq1756_1757: - x1756 - x1757 >= -1
 c3514_neq1757_1758: x1757 + x1758 >= 1
 c3515_neq1757_1758: - x1757 - x1758 >= -1
 c3516_neq1758_1759: x1758 + x1759 >= 1
 c3517_neq1758_1759: - x1758 - x1759 >= -1
 c3518_neq1759_1760: x1759 + x1760 >= 1
 c3519_neq1759_1760: - x1759 - x1760 >= -1
 c3520_neq1760_1761: x1760 + x1761 >= 1
 c3521_neq1760_1761: - x1760 - x1761 >= -1
 c3522_neq1761_1762: x1761 + x1762 >= 1
 c3523_neq1761_1762: - x1761 - x1762 >= -1
 c3524_neq1762_1763: x1762 + x1763 >= 1
 c3525_neq1762_1763: - x1762 - x1763 >= -1
 c3526_neq1763_1764: x1763 + x1764 >= 1
 c3527_neq1763_1764: - x1763 - x1764 >= -1
 c3528_neq1764_1765: x1764 + x1765 >= 1
 c3529_neq1764_1765: - x1764 - x1765 >= -1
 c3530_neq1765_1766: x1765 + x1766 >= 1
 c3531_neq1765_1766: - x1765 - x1766 >= -1
 c3532_neq1766_1767: x1766 + x1767 >= 1
 c3533_neq1766_1767: - x1766 - x1767 >= -1
 c3534_neq1767_1768: x1767 + x1768 >= 1
 c3535_neq1767_1768: - x1767 - x1768 >= -1
 c3536_neq1768_1769: x1768 + x1769 >= 1
 c3537_neq1768_1769: - x1768 - x1769 >= -1
 c3538_neq1769_1770: x1769 + x1770 >= 1
 c3539_neq1769_1770: - x1769 - x1770 >= -1
 c3540_neq1770_1771: x1770 + x1771 >= 1
 c3541_neq1770_1771: - x1770 - x1771 >= -1
 c3542_neq1771_1772: x1771 + x1772 >= 1
 c3543_neq1771_1772: - x1771 - x1772 >= -1
 c3544_neq1772_1773: x1772 + x1773 >= 1
 c3545_neq1772_1773: - x1772 - x1773 >= -1
 c3546_neq1773_1774: x1773 + x1774 >= 1
 c3547_neq1773_1774: - x1773 - x1774 >= -1
 c3548_neq1774_1775: x1774 + x1775 >= 1
 c3549_neq1774_1775: - x1774 - x1775 >= -1
 c3550_neq1775_1776: x1775 + x1776 >= 1
 c3551_neq1775_1776: - x1775 - x1776 >= -1
 c3552_neq1776_1777: x1776 + x1777 >= 1
 c3553_neq1776_1777: - x1776 - x1777 >= -1
 c3554_neq1777_1778: x1777 + x1778 >= 1
 c3555_neq1777_1778: - x1777 - x1778 >= -1
 c3556_neq1778_1779: x1778 + x1779 >= 1
 c3557_neq1778_1779: - x1778 - x1779 >= -1
 c3558_neq1779_1780: x1779 + x1780 >= 1
 c3559_neq1779_1780: - x1779 - x1780 >= -1
 c3560_neq1780_1781: x1780 + x1781 >= 1
 c3561_neq1780_1781: - x1780 - x1781 >= -1
 c3562_neq1781_1782: x1781 + x1782 >= 1
 c3563_neq1781_1782: - x1781 - x1782 >= -1
 c3564_neq1782_1783: x1782 + x1783 >= 1
 c3565_neq1782_1783: - x1782 - x1783 >= -1
 c3566_neq1783_1784: x1783 + x1784 >= 1
 c3567_neq1783_1784: - x1783 - x1784 >= -1
 c3568_neq1784_1785: x1784 + x1785 >= 1
 c3569_neq1784_1785: - x1784 - x1785 >= -1
 c3570_neq1785_1786: x1785 + x1786 >= 1
 c3571_neq1785_1786: - x1785 - x1786 >= -1
 c3572_neq1786_1787: x1786 + x1787 >= 1
 c3573_neq1786_1787: - x1786 - x1787 >= -1
 c3574_neq1787_1788: x1787 + x1788 >= 1
 c3575_neq1787_1788: - x1787 - x1788 >= -1
 c3576_neq1788_1789: x1788 + x1789 >= 1
 c3577_neq1788_1789: - x1788 - x1789 >= -1
 c3578_neq1789_1790: x1789 + x1790 >= 1
 c3579_neq1789_1790: - x1789 - x1790 >= -1
 c3580_neq1790_1791: x1790 + x1791 >= 1
 c3581_neq1790_1791: - x1790 - x1791 >= -1
 c3582_neq1791_1792: x1791 + x1792 >= 1
 c3583_neq1791_1792: - x1791 - x1792 >= -1
 c3584_neq1792_1793: x1792 + x1793 >= 1
 c3585_neq1792_1793: - x1792 - x1793 >= -1
 c3586_neq1793_1794: x1793 + x1794 >= 1
 c3587_neq1793_1794: - x1793 - x1794 >= -1
 c3588_neq1794_1795: x1794 + x1795 >= 1
 c3589_neq1794_1795: - x1794 - x1795 >= -1
 c3590_neq1795_1796: x1795 + x1796 >= 1
 c3591_neq1795_1796: - x1795 - x1796 >= -1
 c3592_neq1796_1797: x1796 + x1797 >= 1
 c3593_neq1796_1797: - x1796 - x1797 >= -1
 c3594_neq1797_1798: x1797 + x1798 >= 1
 c3595_neq1797_1798: - x1797 - x1798 >= -1
 c3596_neq1798_1799: x1798 + x1799 >= 1
 c3597_neq1798_1799: - x1798 - x1799 >= -1
 c3598_neq1799_1800: x1799 + x1800 >= 1
 c3599_neq1799_1800: - x1799 - x1800 >= -1
 c3600_neq1800_1801: x1800 + x1801 >= 1
 c3601_neq1800_1801: - x1800 - x1801 >= -1
 c3602_neq1801_1802: x1801 + x1802 >= 1
 c3603_neq1801_1802: - x1801 - x1802 >= -1
 c3604_neq1802_1803: x1802 + x1803 >= 1
 c3605_neq1802_1803: - x1802 - x1803 >= -1
 c3606_neq1803_1804: x1803 + x1804 >= 1
 c3607_neq1803_1804: - x1803 - x1804 >= -1
 c3608_neq1804_1805: x1804 + x1805 >= 1
 c3609_neq1804_1805: - x1804 - x1805 >= -1
 c3610_neq1805_1806: x1805 + x1806 >= 1
 c3611_neq1805_1806: - x1805 - x1806 >= -1
 c3612_neq1806_1807: x1806 + x1807 >= 1
 c3613_neq1806_1807: - x1806 - x1807 >= -1
 c3614_neq1807_1808: x1807 + x1808 >= 1
 c3615_neq1807_1808: - x1807 - x1808 >= -1
 c3616_neq1808_1809: x1808 + x1809 >= 1
 c3617_neq1808_1809: - x1808 - x1809 >= -1
 c3618_neq1809_1810: x1809 + x1810 >= 1
 c3619_neq1809_1810: - x1809 - x1810 >= -1
 c3620_neq1810_1811: x1810 + x1811 >= 1
 c3621_neq1810_1811: - x1810 - x1811 >= -1
 c3622_neq1811_1812: x1811 + x1812 >= 1
 c3623_neq1811_1812: - x1811 - x1812 >= -1
 c3624_neq1812_1813: x1812 + x1813 >= 1
 c3625_neq1812_1813: - x1812 - x1813 >= -1
 c3626_neq1813_1814: x1813 + x1814 >= 1
 c3627_neq1813_1814: - x1813 - x1814 >= -1
 c3628_neq1814_1815: x1814 + x1815 >= 1
 c3629_neq1814_1815: - x1814 - x1815 >= -1
 c3630_neq1815_1816: x1815 + x1816 >= 1
 c3631_neq1815_1816: - x1815 - x1816 >= -1
 c3632_neq1816_1817: x1816 + x1817 >= 1
 c3633_neq1816_1817: - x1816 - x1817 >= -1
 c3634_neq1817_1818: x1817 + x1818 >= 1
 c3635_neq1817_1818: - x1817 - x1818 >= -1
 c3636_neq1818_1819: x1818 + x1819 >= 1
 c3637_neq1818_1819: - x1818 - x1819 >= -1
 c3638_neq1819_1820: x1819 + x1820 >= 1
 c3639_neq1819_1820: - x1819 - x1820 >= -1
 c3640_neq1820_1821: x1820 + x1821 >= 1
 c3641_neq1820_1821: - x1820 - x1821 >= -1
 c3642_neq1821_1822: x1821 + x1822 >= 1
 c3643_neq1821_1822: - x1821 - x1822 >= -1
 c3644_neq1822_1823: x1822 + x1823 >= 1
 c3645_neq1822_1823: - x1822 - x1823 >= -1
 c3646_neq1823_1824: x1823 + x1824 >= 1
 c3647_neq1823_1824: - x1823 - x1824 >= -1
 c3648_neq1824_1825: x1824 + x1825 >= 1
 c3649_neq1824_1825: - x1824 - x1825 >= -1
 c3650_neq1825_1826: x1825 + x1826 >= 1
 c3651_neq1825_1826: - x1825 - x1826 >= -1
 c3652_neq1826_1827: x1826 + x1827 >= 1
 c3653_neq1826_1827: - x1826 - x1827 >= -1
 c3654_neq1827_1828: x1827 + x1828 >= 1
 c3655_neq1827_1828: - x1827 - x1828 >= -1
 c3656_neq1828_1829: x1828 + x1829 >= 1
 c3657_neq1828_1829: - x1828 - x1829 >= -1
 c3658_neq1829_1830: x1829 + x1830 >= 1
 c3659_neq1829_1830: - x1829 - x1830 >= -1
 c3660_neq1830_1831: x1830 + x1831 >= 1
 c3661_neq1830_1831: - x1830 - x1831 >= -1
 c3662_neq1831_1832: x1831 + x1832 >= 1
 c3663_neq1831_1832: - x1831 - x1832 >= -1
 c3664_neq1832_1833: x1832 + x1833 >= 1
 c3665_neq1832_1833: - x1832 - x1833 >= -1
 c3666_neq1833_1834: x1833 + x1834 >= 1
 c3667_neq1833_1834: - x1833 - x1834 >= -1
 c3668_neq1834_1835: x1834 + x1835 >= 1
 c3669_neq1834_1835: - x1834 - x1835 >= -1
 c3670_neq1835_1836: x1835 + x1836 >= 1
 c3671_neq1835_1836: - x1835 - x1836 >= -1
 c3672_neq1836_1837: x1836 + x1837 >= 1
 c3673_neq1836_1837: - x1836 - x1837 >= -1
 c3674_neq1837_1838: x1837 + x1838 >= 1
 c3675_neq1837_1838: - x1837 - x1838 >= -1
 c3676_neq1838_1839: x1838 + x1839 >= 1
 c3677_neq1838_1839: - x1838 - x1839 >= -1
 c3678_neq1839_1840: x1839 + x1840 >= 1
 c3679_neq1839_1840: - x1839 - x1840 >= -1
 c3680_neq1840_1841: x1840 + x1841 >= 1
 c3681_neq1840_1841: - x1840 - x1841 >= -1
 c3682_neq1841_1842: x1841 + x1842 >= 1
 c3683_neq1841_1842: - x1841 - x1842 >= -1
 c3684_neq1842_1843: x1842 + x1843 >= 1
 c3685_neq1842_1843: - x1842 - x1843 >= -1
 c3686_neq1843_1844: x1843 + x1844 >= 1
 c3687_neq1843_1844: - x1843 - x1844 >= -1
 c3688_neq1844_1845: x1844 + x1845 >= 1
 c3689_neq1844_1845: - x1844 - x1845 >= -1
 c3690_neq1845_1846: x1845 + x1846 >= 1
 c3691_neq1845_1846: - x1845 - x1846 >= -1
 c3692_neq1846_1847: x1846 + x1847 >= 1
 c3693_neq1846_1847: - x1846 - x1847 >= -1
 c3694_neq1847_1848: x1847 + x1848 >= 1
 c3695_neq1847_1848: - x1847 - x1848 >= -1
 c3696_neq1848_1849: x1848 + x1849 >= 1
 c3697_neq1848_1849: - x1848 - x1849 >= -1
 c3698_neq1849_1850: x1849 + x1850 >= 1
 c3699_neq1849_1850: - x1849 - x1850 >= -1
 c3700_neq1850_1851: x1850 + x1851 >= 1
 c3701_neq1850_1851: - x1850 - x1851 >= -1
 c3702_neq1851_1852: x1851 + x1852 >= 1
 c3703_neq1851_1852: - x1851 - x1852 >= -1
 c3704_neq1852_1853: x1852 + x1853 >= 1
 c3705_neq1852_1853: - x1852 - x1853 >= -1
 c3706_neq1853_1854: x1853 + x1854 >= 1
 c3707_neq1853_1854: - x1853 - x1854 >= -1
 c3708_neq1854_1855: x1854 + x1855 >= 1
 c3709_neq1854_1855: - x1854 - x1855 >= -1
 c3710_neq1855_1856: x1855 + x1856 >= 1
 c3711_neq1855_1856: - x1855 - x1856 >= -1
 c3712_neq1856_1857: x1856 + x1857 >= 1
 c3713_neq1856_1857: - x1856 - x1857 >= -1
 c3714_neq1857_1858: x1857 + x1858 >= 1
 c3715_neq1857_1858: - x1857 - x1858 >= -1
 c3716_neq1858_1859: x1858 + x1859 >= 1
 c3717_neq1858_1859: - x1858 - x1859 >= -1
 c3718_neq1859_1860: x1859 + x1860 >= 1
 c3719_neq1859_1860: - x1859 - x1860 >= -1
 c3720_neq1860_1861: x1860 + x1861 >= 1
 c3721_neq1860_1861: - x1860 - x1861 >= -1
 c3722_neq1861_1862: x1861 + x1862 >= 1
 c3723_neq1861_1862: - x1861 - x1862 >= -1
 c3724_neq1862_1863: x1862 + x1863 >= 1
 c3725_neq1862_1863: - x1862 - x1863 >= -1
 c3726_neq1863_1864: x1863 + x1864 >= 1
 c3727_neq1863_1864: - x1863 - x1864 >= -1
 c3728_neq1864_1865: x1864 + x1865 >= 1
 c3729_neq1864_1865: - x1864 - x1865 >= -1
 c3730_neq1865_1866: x1865 + x1866 >= 1
 c3731_neq1865_1866: - x1865 - x1866 >= -1
 c3732_neq1866_1867: x1866 + x1867 >= 1
 c3733_neq1866_1867: - x1866 - x1867 >= -1
 c3734_neq1867_1868: x1867 + x1868 >= 1
 c3735_neq1867_1868: - x1867 - x1868 >= -1
 c3736_neq1868_1869: x1868 + x1869 >= 1
 c3737_neq1868_1869: - x1868 - x1869 >= -1
 c3738_neq1869_1870: x1869 + x1870 >= 1
 c3739_neq1869_1870: - x1869 - x1870 >= -1
 c3740_neq1870_1871: x1870 + x1871 >= 1
 c3741_neq1870_1871: - x1870 - x1871 >= -1
 c3742_neq1871_1872: x1871 + x1872 >= 1
 c3743_neq1871_1872: - x1871 - x1872 >= -1
 c3744_neq1872_1873: x1872 + x1873 >= 1
 c3745_neq1872_1873: - x1872 - x1873 >= -1
 c3746_neq1873_1874: x1873 + x1874 >= 1
 c3747_neq1873_1874: - x1873 - x1874 >= -1
 c3748_neq1874_1875: x1874 + x1875 >= 1
 c3749_neq1874_1875: - x1874 - x1875 >= -1
 c3750_neq1875_1876: x1875 + x1876 >= 1
 c3751_neq1875_1876: - x1875 - x1876 >= -1
 c3752_neq1876_1877: x1876 + x1877 >= 1
 c3753_neq1876_1877: - x1876 - x1877 >= -1
 c3754_neq1877_1878: x1877 + x1878 >= 1
 c3755_neq1877_1878: - x1877 - x1878 >= -1
 c3756_neq1878_1879: x1878 + x1879 >= 1
 c3757_neq1878_1879: - x1878 - x1879 >= -1
 c3758_neq1879_1880: x1879 + x1880 >= 1
 c3759_neq1879_1880: - x1879 - x1880 >= -1
 c3760_neq1880_1881: x1880 + x1881 >= 1
 c3761_neq1880_1881: - x1880 - x1881 >= -1
 c3762_neq1881_1882: x1881 + x1882 >= 1
 c3763_neq1881_1882: - x1881 - x1882 >= -1
 c3764_neq1882_1883: x1882 + x1883 >= 1
 c3765_neq1882_1883: - x1882 - x1883 >= -1
 c3766_neq1883_1884: x1883 + x1884 >= 1
 c3767_neq1883_1884: - x1883 - x1884 >= -1
 c3768_neq1884_1885: x1884 + x1885 >= 1
 c3769_neq1884_1885: - x1884 - x1885 >= -1
 c3770_neq1885_1886: x1885 + x1886 >= 1
 c3771_neq1885_1886: - x1885 - x1886 >= -1
 c3772_neq1886_1887: x1886 + x1887 >= 1
 c3773_neq1886_1887: - x1886 - x1887 >= -1
 c3774_neq1887_1888: x1887 + x1888 >= 1
 c3775_neq1887_1888: - x1887 - x1888 >= -1
 c3776_neq1888_1889: x1888 + x1889 >= 1
 c3777_neq1888_1889: - x1888 - x1889 >= -1
 c3778_neq1889_1890: x1889 + x1890 >= 1
 c3779_neq1889_1890: - x1889 - x1890 >= -1
 c3780_neq1890_1891: x1890 + x1891 >= 1
 c3781_neq1890_1891: - x1890 - x1891 >= -1
 c3782_neq1891_1892: x1891 + x1892 >= 1
 c3783_neq1891_1892: - x1891 - x1892 >= -1
 c3784_neq1892_1893: x1892 + x1893 >= 1
 c3785_neq1892_1893: - x1892 - x1893 >= -1
 c3786_neq1893_1894: x1893 + x1894 >= 1
 c3787_neq1893_1894: - x1893 - x1894 >= -1
 c3788_neq1894_1895: x1894 + x1895 >= 1
 c3789_neq1894_1895: - x1894 - x1895 >= -1
 c3790_neq1895_1896: x1895 + x1896 >= 1
 c3791_neq1895_1896: - x1895 - x1896 >= -1
 c3792_neq1896_1897: x1896 + x1897 >= 1
 c3793_neq1896_1897: - x1896 - x1897 >= -1
 c3794_neq1897_1898: x1897 + x1898 >= 1
 c3795_neq1897_1898: - x1897 - x1898 >= -1
 c3796_neq1898_1899: x1898 + x1899 >= 1
 c3797_neq1898_1899: - x1898 - x1899 >= -1
 c3798_neq1899_1900: x1899 + x1900 >= 1
 c3799_neq1899_1900: - x1899 - x1900 >= -1
 c3800_neq1900_1901: x1900 + x1901 >= 1
 c3801_neq1900_1901: - x1900 - x1901 >= -1
 c3802_neq1901_1902: x1901 + x1902 >= 1
 c3803_neq1901_1902: - x1901 - x1902 >= -1
 c3804_neq1902_1903: x1902 + x1903 >= 1
 c3805_neq1902_1903: - x1902 - x1903 >= -1
 c3806_neq1903_1904: x1903 + x1904 >= 1
 c3807_neq1903_1904: - x1903 - x1904 >= -1
 c3808_neq1904_1905: x1904 + x1905 >= 1
 c3809_neq1904_1905: - x1904 - x1905 >= -1
 c3810_neq1905_1906: x1905 + x1906 >= 1
 c3811_neq1905_1906: - x1905 - x1906 >= -1
 c3812_neq1906_1907: x1906 + x1907 >= 1
 c3813_neq1906_1907: - x1906 - x1907 >= -1
 c3814_neq1907_1908: x1907 + x1908 >= 1
 c3815_neq1907_1908: - x1907 - x1908 >= -1
 c3816_neq1908_1909: x1908 + x1909 >= 1
 c3817_neq1908_1909: - x1908 - x1909 >= -1
 c3818_neq1909_1910: x1909 + x1910 >= 1
 c3819_neq1909_1910: - x1909 - x1910 >= -1
 c3820_neq1910_1911: x1910 + x1911 >= 1
 c3821_neq1910_1911: - x1910 - x1911 >= -1
 c3822_neq1911_1912: x1911 + x1912 >= 1
 c3823_neq1911_1912: - x1911 - x1912 >= -1
 c3824_neq1912_1913: x1912 + x1913 >= 1
 c3825_neq1912_1913: - x1912 - x1913 >= -1
 c3826_neq1913_1914: x1913 + x1914 >= 1
 c3827_neq1913_1914: - x1913 - x1914 >= -1
 c3828_neq1914_1915: x1914 + x1915 >= 1
 c3829_neq1914_1915: - x1914 - x1915 >= -1
 c3830_neq1915_1916: x1915 + x1916 >= 1
 c3831_neq1915_1916: - x1915 - x1916 >= -1
 c3832_neq1916_1917: x1916 + x1917 >= 1
 c3833_neq1916_1917: - x1916 - x1917 >= -1
 c3834_neq1917_1918: x1917 + x1918 >= 1
 c3835_neq1917_1918: - x1917 - x1918 >= -1
 c3836_neq1918_1919: x1918 + x1919 >= 1
 c3837_neq1918_1919: - x1918 - x1919 >= -1
 c3838_neq1919_1920: x1919 + x1920 >= 1
 c3839_neq1919_1920: - x1919 - x1920 >= -1
 c3840_neq1920_1921: x1920 + x1921 >= 1
 c3841_neq1920_1921: - x1920 - x1921 >= -1
 c3842_neq1921_1922: x1921 + x1922 >= 1
 c3843_neq1921_1922: - x1921 - x1922 >= -1
 c3844_neq1922_1923: x1922 + x1923 >= 1
 c3845_neq1922_1923: - x1922 - x1923 >= -1
 c3846_neq1923_1924: x1923 + x1924 >= 1
 c3847_neq1923_1924: - x1923 - x1924 >= -1
 c3848_neq1924_1925: x1924 + x1925 >= 1
 c3849_neq1924_1925: - x1924 - x1925 >= -1
 c3850_neq1925_1926: x1925 + x1926 >= 1
 c3851_neq1925_1926: - x1925 - x1926 >= -1
 c3852_neq1926_1927: x1926 + x1927 >= 1
 c3853_neq1926_1927: - x1926 - x1927 >= -1
 c3854_neq1927_1928: x1927 + x1928 >= 1
 c3855_neq1927_1928: - x1927 - x1928 >= -1
 c3856_neq1928_1929: x1928 + x1929 >= 1
 c3857_neq1928_1929: - x1928 - x1929 >= -1
 c3858_neq1929_1930: x1929 + x1930 >= 1
 c3859_neq1929_1930: - x1929 - x1930 >= -1
 c3860_neq1930_1931: x1930 + x1931 >= 1
 c3861_neq1930_1931: - x1930 - x1931 >= -1
 c3862_neq1931_1932: x1931 + x1932 >= 1
 c3863_neq1931_1932: - x1931 - x1932 >= -1
 c3864_neq1932_1933: x1932 + x1933 >= 1
 c3865_neq1932_1933: - x1932 - x1933 >= -1
 c3866_neq1933_1934: x1933 + x1934 >= 1
 c3867_neq1933_1934: - x1933 - x1934 >= -1
 c3868_neq1934_1935: x1934 + x1935 >= 1
 c3869_neq1934_1935: - x1934 - x1935 >= -1
 c3870_neq1935_1936: x1935 + x1936 >= 1
 c3871_neq1935_1936: - x1935 - x1936 >= -1
 c3872_neq1936_1937: x1936 + x1937 >= 1
 c3873_neq1936_1937: - x1936 - x1937 >= -1
 c3874_neq1937_1938: x1937 + x1938 >= 1
 c3875_neq1937_1938: - x1937 - x1938 >= -1
 c3876_neq1938_1939: x1938 + x1939 >= 1
 c3877_neq1938_1939: - x1938 - x1939 >= -1
 c3878_neq1939_1940: x1939 + x1940 >= 1
 c3879_neq1939_1940: - x1939 - x1940 >= -1
 c3880_neq1940_1941: x1940 + x1941 >= 1
 c3881_neq1940_1941: - x1940 - x1941 >= -1
 c3882_neq1941_1942: x1941 + x1942 >= 1
 c3883_neq1941_1942: - x1941 - x1942 >= -1
 c3884_neq1942_1943: x1942 + x1943 >= 1
 c3885_neq1942_1943: - x1942 - x1943 >= -1
 c3886_neq1943_1944: x1943 + x1944 >= 1
 c3887_neq1943_1944: - x1943 - x1944 >= -1
 c3888_neq1944_1945: x1944 + x1945 >= 1
 c3889_neq1944_1945: - x1944 - x1945 >= -1
 c3890_neq1945_1946: x1945 + x1946 >= 1
 c3891_neq1945_1946: - x1945 - x1946 >= -1
 c3892_neq1946_1947: x1946 + x1947 >= 1
 c3893_neq1946_1947: - x1946 - x1947 >= -1
 c3894_neq1947_1948: x1947 + x1948 >= 1
 c3895_neq1947_1948: - x1947 - x1948 >= -1
 c3896_neq1948_1949: x1948 + x1949 >= 1
 c3897_neq1948_1949: - x1948 - x1949 >= -1
 c3898_neq1949_1950: x1949 + x1950 >= 1
 c3899_neq1949_1950: - x1949 - x1950 >= -1
 c3900_neq1950_1951: x1950 + x1951 >= 1
 c3901_neq1950_1951: - x1950 - x1951 >= -1
 c3902_neq1951_1952: x1951 + x1952 >= 1
 c3903_neq1951_1952: - x1951 - x1952 >= -1
 c3904_neq1952_1953: x1952 + x1953 >= 1
 c3905_neq1952_1953: - x1952 - x1953 >= -1
 c3906_neq1953_1954: x1953 + x1954 >= 1
 c3907_neq1953_1954: - x1953 - x1954 >= -1
 c3908_neq1954_1955: x1954 + x1955 >= 1
 c3909_neq1954_1955: - x1954 - x1955 >= -1
 c3910_neq1955_1956: x1955 + x1956 >= 1
 c3911_neq1955_1956: - x1955 - x1956 >= -1
 c3912_neq1956_1957: x1956 + x1957 >= 1
 c3913_neq1956_1957: - x1956 - x1957 >= -1
 c3914_neq1957_1958: x1957 + x1958 >= 1
 c3915_neq1957_1958: - x1957 - x1958 >= -1
 c3916_neq1958_1959: x1958 + x1959 >= 1
 c3917_neq1958_1959: - x1958 - x1959 >= -1
 c3918_neq1959_1960: x1959 + x1960 >= 1
 c3919_neq1959_1960: - x1959 - x1960 >= -1
 c3920_neq1960_1961: x1960 + x1961 >= 1
 c3921_neq1960_1961: - x1960 - x1961 >= -1
 c3922_neq1961_1962: x1961 + x1962 >= 1
 c3923_neq1961_1962: - x1961 - x1962 >= -1
 c3924_neq1962_1963: x1962 + x1963 >= 1
 c3925_neq1962_1963: - x1962 - x1963 >= -1
 c3926_neq1963_1964: x1963 + x1964 >= 1
 c3927_neq1963_1964: - x1963 - x1964 >= -1
 c3928_neq1964_1965: x1964 + x1965 >= 1
 c3929_neq1964_1965: - x1964 - x1965 >= -1
 c3930_neq1965_1966: x1965 + x1966 >= 1
 c3931_neq1965_1966: - x1965 - x1966 >= -1
 c3932_neq1966_1967: x1966 + x1967 >= 1
 c3933_neq1966_1967: - x1966 - x1967 >= -1
 c3934_neq1967_1968: x1967 + x1968 >= 1
 c3935_neq1967_1968: - x1967 - x1968 >= -1
 c3936_neq1968_1969: x1968 + x1969 >= 1
 c3937_neq1968_1969: - x1968 - x1969 >= -1
 c3938_neq1969_1970: x1969 + x1970 >= 1
 c3939_neq1969_1970: - x1969 - x1970 >= -1
 c3940_neq1970_1971: x1970 + x1971 >= 1
 c3941_neq1970_1971: - x1970 - x1971 >= -1
 c3942_neq1971_1972: x1971 + x1972 >= 1
 c3943_neq1971_1972: - x1971 - x1972 >= -1
 c3944_neq1972_1973: x1972 + x1973 >= 1
 c3945_neq1972_1973: - x1972 - x1973 >= -1
 c3946_neq1973_1974: x1973 + x1974 >= 1
 c3947_neq1973_1974: - x1973 - x1974 >= -1
 c3948_neq1974_1975: x1974 + x1975 >= 1
 c3949_neq1974_1975: - x1974 - x1975 >= -1
 c3950_neq1975_1976: x1975 + x1976 >= 1
 c3951_neq1975_1976: - x1975 - x1976 >= -1
 c3952_neq1976_1977: x1976 + x1977 >= 1
 c3953_neq1976_1977: - x1976 - x1977 >= -1
 c3954_neq1977_1978: x1977 + x1978 >= 1
 c3955_neq1977_1978: - x1977 - x1978 >= -1
 c3956_neq1978_1979: x1978 + x1979 >= 1
 c3957_neq1978_1979: - x1978 - x1979 >= -1
 c3958_neq1979_1980: x1979 + x1980 >= 1
 c3959_neq1979_1980: - x1979 - x1980 >= -1
 c3960_neq1980_1981: x1980 + x1981 >= 1
 c3961_neq1980_1981: - x1980 - x1981 >= -1
 c3962_neq1981_1982: x1981 + x1982 >= 1
 c3963_neq1981_1982: - x1981 - x1982 >= -1
 c3964_neq1982_1983: x1982 + x1983 >= 1
 c3965_neq1982_1983: - x1982 - x1983 >= -1
 c3966_neq1983_1984: x1983 + x1984 >= 1
 c3967_neq1983_1984: - x1983 - x1984 >= -1
 c3968_neq1984_1985: x1984 + x1985 >= 1
 c3969_neq1984_1985: - x1984 - x1985 >= -1
 c3970_neq1985_1986: x1985 + x1986 >= 1
 c3971_neq1985_1986: - x1985 - x1986 >= -1
 c3972_neq1986_1987: x1986 + x1987 >= 1
 c3973_neq1986_1987: - x1986 - x1987 >= -1
 c3974_neq1987_1988: x1987 + x1988 >= 1
 c3975_neq1987_1988: - x1987 - x1988 >= -1
 c3976_neq1988_1989: x1988 + x1989 >= 1
 c3977_neq1988_1989: - x1988 - x1989 >= -1
 c3978_neq1989_1990: x1989 + x1990 >= 1
 c3979_neq1989_1990: - x1989 - x1990 >= -1
 c3980_neq1990_1991: x1990 + x1991 >= 1
 c3981_neq1990_1991: - x1990 - x1991 >= -1
 c3982_neq1991_1992: x1991 + x1992 >= 1
 c3983_neq1991_1992: - x1991 - x1992 >= -1
 c3984_neq1992_1993: x1992 + x1993 >= 1
 c3985_neq1992_1993: - x1992 - x1993 >= -1
 c3986_neq1993_1994: x1993 + x1994 >= 1
 c3987_neq1993_1994: - x1993 - x1994 >= -1
 c3988_neq1994_1995: x1994 + x1995 >= 1
 c3989_neq1994_1995: - x1994 - x1995 >= -1
 c3990_neq1995_1996: x1995 + x1996 >= 1
 c3991_neq1995_1996: - x1995 - x1996 >= -1
 c3992_neq1996_1997: x1996 + x1997 >= 1
 c3993_neq1996_1997: - x1996 - x1997 >= -1
 c3994_neq1997_1998: x1997 + x1998 >= 1
 c3995_neq1997_1998: - x1997 - x1998 >= -1
 c3996_neq1998_1999: x1998 + x1999 >= 1
 c3997_neq1998_1999: - x1998 - x1999 >= -1
 c3998_neq1999_2000: x1999 + x2000 >= 1
 c3999_neq1999_2000: - x1999 - x2000 >= -1
 c4000_neq2000_2001: x2000 + x2001 >= 1
 c4001_neq2000_2001: - x2000 - x2001 >= -1
 c4002_neq2001_2002: x2001 + x2002 >= 1
 c4003_neq2001_2002: - x2001 - x2002 >= -1
 c4004_neq2002_2003: x2002 + x2003 >= 1
 c4005_neq2002_2003: - x2002 - x2003 >= -1
 c4006_neq2003_2004: x2003 + x2004 >= 1
 c4007_neq2003_2004: - x2003 - x2004 >= -1
 c4008_neq2004_2005: x2004 + x2005 >= 1
 c4009_neq2004_2005: - x2004 - x2005 >= -1
 c4010_neq2005_2006: x2005 + x2006 >= 1
 c4011_neq2005_2006: - x2005 - x2006 >= -1
 c4012_neq2006_2007: x2006 + x2007 >= 1
 c4013_neq2006_2007: - x2006 - x2007 >= -1
 c4014_neq2007_2008: x2007 + x2008 >= 1
 c4015_neq2007_2008: - x2007 - x2008 >= -1
 c4016_neq2008_2009: x2008 + x2009 >= 1
 c4017_neq2008_2009: - x2008 - x2009 >= -1
 c4018_neq2009_2010: x2009 + x2010 >= 1
 c4019_neq2009_2010: - x2009 - x2010 >= -1
 c4020_neq2010_2011: x2010 + x2011 >= 1
 c4021_neq2010_2011: - x2010 - x2011 >= -1
 c4022_neq2011_2012: x2011 + x2012 >= 1
 c4023_neq2011_2012: - x2011 - x2012 >= -1
 c4024_neq2012_2013: x2012 + x2013 >= 1
 c4025_neq2012_2013: - x2012 - x2013 >= -1
 c4026_neq2013_2014: x2013 + x2014 >= 1
 c4027_neq2013_2014: - x2013 - x2014 >= -1
 c4028_neq2014_2015: x2014 + x2015 >= 1
 c4029_neq2014_2015: - x2014 - x2015 >= -1
 c4030_neq2015_2016: x2015 + x2016 >= 1
 c4031_neq2015_2016: - x2015 - x2016 >= -1
 c4032_neq2016_2017: x2016 + x2017 >= 1
 c4033_neq2016_2017: - x2016 - x2017 >= -1
 c4034_neq2017_2018: x2017 + x2018 >= 1
 c4035_neq2017_2018: - x2017 - x2018 >= -1
 c4036_neq2018_2019: x2018 + x2019 >= 1
 c4037_neq2018_2019: - x2018 - x2019 >= -1
 c4038_neq2019_2020: x2019 + x2020 >= 1
 c4039_neq2019_2020: - x2019 - x2020 >= -1
 c4040_neq2020_2021: x2020 + x2021 >= 1
 c4041_neq2020_2021: - x2020 - x2021 >= -1
 c4042_neq2021_2022: x2021 + x2022 >= 1
 c4043_neq2021_2022: - x2021 - x2022 >= -1
 c4044_neq2022_2023: x2022 + x2023 >= 1
 c4045_neq2022_2023: - x2022 - x2023 >= -1
 c4046_neq2023_2024: x2023 + x2024 >= 1
 c4047_neq2023_2024: - x2023 - x2024 >= -1
 c4048_neq2024_2025: x2024 + x2025 >= 1
 c4049_neq2024_2025: - x2024 - x2025 >= -1
 c4050_neq2025_2026: x2025 + x2026 >= 1
 c4051_neq2025_2026: - x2025 - x2026 >= -1
 c4052_neq2026_2027: x2026 + x2027 >= 1
 c4053_neq2026_2027: - x2026 - x2027 >= -1
 c4054_neq2027_2028: x2027 + x2028 >= 1
 c4055_neq2027_2028: - x2027 - x2028 >= -1
 c4056_neq2028_2029: x2028 + x2029 >= 1
 c4057_neq2028_2029: - x2028 - x2029 >= -1
 c4058_neq2029_2030: x2029 + x2030 >= 1
 c4059_neq2029_2030: - x2029 - x2030 >= -1
 c4060_neq2030_2031: x2030 + x2031 >= 1
 c4061_neq2030_2031: - x2030 - x2031 >= -1
 c4062_neq2031_2032: x2031 + x2032 >= 1
 c4063_neq2031_2032: - x2031 - x2032 >= -1
 c4064_neq2032_2033: x2032 + x2033 >= 1
 c4065_neq2032_2033: - x2032 - x2033 >= -1
 c4066_neq2033_2034: x2033 + x2034 >= 1
 c4067_neq2033_2034: - x2033 - x2034 >= -1
 c4068_neq2034_2035: x2034 + x2035 >= 1
 c4069_neq2034_2035: - x2034 - x2035 >= -1
 c4070_neq2035_2036: x2035 + x2036 >= 1
 c4071_neq2035_2036: - x2035 - x2036 >= -1
 c4072_neq2036_2037: x2036 + x2037 >= 1
 c4073_neq2036_2037: - x2036 - x2037 >= -1
 c4074_neq2037_2038: x2037 + x2038 >= 1
 c4075_neq2037_2038: - x2037 - x2038 >= -1
 c4076_neq2038_2039: x2038 + x2039 >= 1
 c4077_neq2038_2039: - x2038 - x2039 >= -1
 c4078_neq2039_2040: x2039 + x2040 >= 1
 c4079_neq2039_2040: - x2039 - x2040 >= -1
 c4080_neq2040_2041: x2040 + x2041 >= 1
 c4081_neq2040_2041: - x2040 - x2041 >= -1
 c4082_neq2041_2042: x2041 + x2042 >= 1
 c4083_neq2041_2042: - x2041 - x2042 >= -1
 c4084_neq2042_2043: x2042 + x2043 >= 1
 c4085_neq2042_2043: - x2042 - x2043 >= -1
 c4086_neq2043_2044: x2043 + x2044 >= 1
 c4087_neq2043_2044: - x2043 - x2044 >= -1
 c4088_neq2044_2045: x2044 + x2045 >= 1
 c4089_neq2044_2045: - x2044 - x2045 >= -1
 c4090_neq2045_2046: x2045 + x2046 >= 1
 c4091_neq2045_2046: - x2045 - x2046 >= -1
 c4092_neq2046_2047: x2046 + x2047 >= 1
 c4093_neq2046_2047: - x2046 - x2047 >= -1
Binary
 x0
 x1
 x2
 x3
 x4
 x5
 x6
 x7
 x8
 x9
 x10
 x11
 x12
 x13
 x14
 x15
 x16
 x17
 x18
 x19
 x20
 x21
 x22
 x23
 x24
 x25
 x26
 x27
 x28
 x29
 x30
 x31
 x32
 x33
 x34
 x35
 x36
 x37
 x38
 x39
 x40
 x41
 x42
 x43
 x44
 x45
 x46
 x47
 x48
 x49
 x50
 x51
 x52
 x53
 x54
 x55
 x56
 x57
 x58
 x59
 x60
 x61
 x62
 x63
 x64
 x65
 x66
 x67
 x68
 x69
 x70
 x71
 x72
 x73
 x74
 x75
 x76
 x77
 x78
 x79
 x80
 x81
 x82
 x83
 x84
 x85
 x86
 x87
 x88
 x89
 x90
 x91
 x92
 x93
 x94
 x95
 x96
 x97
 x98
 x99
 x100
 x101
 x102
 x103
 x104
 x105
 x106
 x107
 x108
 x109
 x110
 x111
 x112
 x113
 x114
 x115
 x116
 x117
 x118
 x119
 x120
 x121
 x122
 x123
 x124
 x125
 x126
 x127
 x128
 x129
 x130
 x131
 x132
 x133
 x134
 x135
 x136
 x137
 x138
 x139
 x140
 x141
 x142
 x143
 x144
 x145
 x146
 x147
 x148
 x149
 x150
 x151
 x152
 x153
 x154
 x155
 x156
 x157
 x158
 x159
 x160
 x161
 x162
 x163
 x164
 x165
 x166
 x167
 x168
 x169
 x170
 x171
 x172
 x173
 x174
 x175
 x176
 x177
 x178
 x179
 x180
 x181
 x182
 x183
 x184
 x185
 x186
 x187
 x188
 x189
 x190
 x191
 x192
 x193
 x194
 x195
 x196
 x197
 x198
 x199
 x200
 x201
 x202
 x203
 x204
 x205
 x206
 x207
 x208
 x209
 x210
 x211
 x212
 x213
 x214
 x215
 x216
 x217
 x218
 x219
 x220
 x221
 x222
 x223
 x224
 x225
 x226
 x227
 x228
 x229
 x230
 x231
 x232
 x233
 x234
 x235
 x236
 x237
 x238
 x239
 x240
 x241
 x242
 x243
 x244
 x245
 x246
 x247
 x248
 x249
 x250
 x251
 x252
 x253
 x254
 x255
 x256
 x257
 x258
 x259
 x260
 x261
 x262
 x263
 x264
 x265
 x266
 x267
 x268
 x269
 x270
 x271
 x272
 x273
 x274
 x275
 x276
 x277
 x278
 x279
 x280
 x281
 x282
 x283
 x284
 x285
 x286
 x287
 x288
 x289
 x290
 x291
 x292
 x293
 x294
 x295
 x296
 x297
 x298
 x299
 x300
 x301
 x302
 x303
 x304
 x305
 x306
 x307
 x308
 x309
 x310
 x311
 x312
 x313
 x314
 x315
 x316
 x317
 x318
 x319
 x320
 x321
 x322
 x323
 x324
 x325
 x326
 x327
 x328
 x329
 x330
 x331
 x332
 x333
 x334
 x335
 x336
 x337
 x338
 x339
 x340
 x341
 x342
 x343
 x344
 x345
 x346
 x347
 x348
 x349
 x350
 x351
 x352
 x353
 x354
 x355
 x356
 x357
 x358
 x359
 x360
 x361
 x362
 x363
 x364
 x365
 x366
 x367
 x368
 x369
 x370
 x371
 x372
 x373
 x374
 x375
 x376
 x377
 x378
 x379
 x380
 x381
 x382
 x383
 x384
 x385
 x386
 x387
 x388
 x389
 x390
 x391
 x392
 x393
 x394
 x395
 x396
 x397
 x398
 x399
 x400
 x401
 x402
 x403
 x404
 x405
 x406
 x407
 x408
 x409
 x410
 x411
 x412
 x413
 x414
 x415
 x416
 x417
 x418
 x419
 x420
 x421
 x422
 x423
 x424
 x425
 x426
 x427
 x428
 x429
 x430
 x431
 x432
 x433
 x434
 x435
 x436
 x437
 x438
 x439
 x440
 x441
 x442
 x443
 x444
 x445
 x446
 x447
 x448
 x449
 x450
 x451
 x452
 x453
 x454
 x455
 x456
 x457
 x458
 x459
 x460
 x461
 x462
 x463
 x464
 x465
 x466
 x467
 x468
 x469
 x470
 x471
 x472
 x473
 x474
 x475
 x476
 x477
 x478
 x479
 x480
 x481
 x482
 x483
 x484
 x485
 x486
 x487
 x488
 x489
 x490
 x491
 x492
 x493
 x494
 x495
 x496
 x497
 x498
 x499
 x500
 x501
 x502
 x503
 x504
 x505
 x506
 x507
 x508
 x509
 x510
 x511
 x512
 x513
 x514
 x515
 x516
 x517
 x518
 x519
 x520
 x521
 x522
 x523
 x524
 x525
 x526
 x527
 x528
 x529
 x530
 x531
 x532
 x533
 x534
 x535
 x536
 x537
 x538
 x539
 x540
 x541
 x542
 x543
 x544
 x545
 x546
 x547
 x548
 x549
 x550
 x551
 x552
 x553
 x554
 x555
 x556
 x557
 x558
 x559
 x560
 x561
 x562
 x563
 x564
 x565
 x566
 x567
 x568
 x569
 x570
 x571
 x572
 x573
 x574
 x575
 x576
 x577
 x578
 x579
 x580
 x581
 x582
 x583
 x584
 x585
 x586
 x587
 x588
 x589
 x590
 x591
 x592
 x593
 x594
 x595
 x596
 x597
 x598
 x599
 x600
 x601
 x602
 x603
 x604
 x605
 x606
 x607
 x608
 x609
 x610
 x611
 x612
 x613
 x614
 x615
 x616
 x617
 x618
 x619
 x620
 x621
 x622
 x623
 x624
 x625
 x626
 x627
 x628
 x629
 x630
 x631
 x632
 x633
 x634
 x635
 x636
 x637
 x638
 x639
 x640
 x641
 x642
 x643
 x644
 x645
 x646
 x647
 x648
 x649
 x650
 x651
 x652
 x653
 x654
 x655
 x656
 x657
 x658
 x659
 x660
 x661
 x662
 x663
 x664
 x665
 x666
 x667
 x668
 x669
 x670
 x671
 x672
 x673
 x674
 x675
 x676
 x677
 x678
 x679
 x680
 x681
 x682
 x683
 x684
 x685
 x686
 x687
 x688
 x689
 x690
 x691
 x692
 x693
 x694
 x695
 x696
 x697
 x698
 x699
 x700
 x701
 x702
 x703
 x704
 x705
 x706
 x707
 x708
 x709
 x710
 x711
 x712
 x713
 x714
 x715
 x716
 x717
 x718
 x719
 x720
 x721
 x722
 x723
 x724
 x725
 x726
 x727
 x728
 x729
 x730
 x731
 x732
 x733
 x734
 x735
 x736
 x737
 x738
 x739
 x740
 x741
 x742
 x743
 x744
 x745
 x746
 x747
 x748
 x749
 x750
 x751
 x752
 x753
 x754
 x755
 x756
 x757
 x758
 x759
 x760
 x761
 x762
 x763
 x764
 x765
 x766
 x767
 x768
 x769
 x770
 x771
 x772
 x773
 x774
 x775
 x776
 x777
 x778
 x779
 x780
 x781
 x782
 x783
 x784
 x785
 x786
 x787
 x788
 x789
 x790
 x791
 x792
 x793
 x794
 x795
 x796
 x797
 x798
 x799
 x800
 x801
 x802
 x803
 x804
 x805
 x806
 x807
 x808
 x809
 x810
 x811
 x812
 x813
 x814
 x815
 x816
 x817
 x818
 x819
 x820
 x821
 x822
 x823
 x824
 x825
 x826
 x827
 x828
 x829
 x830
 x831
 x832
 x833
 x834
 x835
 x836
 x837
 x838
 x839
 x840
 x841
 x842
 x843
 x844
 x845
 x846
 x847
 x848
 x849
 x850
 x851
 x852
 x853
 x854
 x855
 x856
 x857
 x858
 x859
 x860
 x861
 x862
 x863
 x864
 x865
 x866
 x867
 x868
 x869
 x870
 x871
 x872
 x873
 x874
 x875
 x876
 x877
 x878
 x879
 x880
 x881
 x882
 x883
 x884
 x885
 x886
 x887
 x888
 x889
 x890
 x891
 x892
 x893
 x894
 x895
 x896
 x897
 x898
 x899
 x900
 x901
 x902
 x903
 x904
 x905
 x906
 x907
 x908
 x909
 x910
 x911
 x912
 x913
 x914
 x915
 x916
 x917
 x918
 x919
 x920
 x921
 x922
 x923
 x924
 x925
 x926
 x927
 x928
 x929
 x930
 x931
 x932
 x933
 x934
 x935
 x936
 x937
 x938
 x939
 x940
 x941
 x942
 x943
 x944
 x945
 x946
 x947
 x948
 x949
 x950
 x951
 x952
 x953
 x954
 x955
 x956
 x957
 x958
 x959
 x960
 x961
 x962
 x963
 x964
 x965
 x966
 x967
 x968
 x969
 x970
 x971
 x972
 x973
 x974
 x975
 x976
 x977
 x978
 x979
 x980
 x981
 x982
 x983
 x984
 x985
 x986
 x987
 x988
 x989
 x990
 x991
 x992
 x993
 x994
 x995
 x996
 x997
 x998
 x999
 x1000
 x1001
 x1002
 x1003
 x1004
 x1005
 x1006
 x1007
 x1008
 x1009
 x1010
 x1011
 x1012
 x1013
 x1014
 x1015
 x1016
 x1017
 x1018
 x1019
 x1020
 x1021
 x1022
 x1023
 x1024
 x1025
 x1026
 x1027
 x1028
 x1029
 x1030
 x1031
 x1032
 x1033
 x1034
 x1035
 x1036
 x1037
 x1038
 x1039
 x1040
 x1041
 x1042
 x1043
 x1044
 x1045
 x1046
 x1047
 x1048
 x1049
 x1050
 x1051
 x1052
 x1053
 x1054
 x1055
 x1056
 x1057
 x1058
 x1059
 x1060
 x1061
 x1062
 x1063
 x1064
 x1065
 x1066
 x1067
 x1068
 x1069
 x1070
 x1071
 x1072
 x1073
 x1074
 x1075
 x1076
 x1077
 x1078
 x1079
 x1080
 x1081
 x1082
 x1083
 x1084
 x1085
 x1086
 x1087
 x1088
 x1089
 x1090
 x1091
 x1092
 x1093
 x1094
 x1095
 x1096
 x1097
 x1098
 x1099
 x1100
 x1101
 x1102
 x1103
 x1104
 x1105
 x1106
 x1107
 x1108
 x1109
 x1110
 x1111
 x1112
 x1113
 x1114
 x1115
 x1116
 x1117
 x1118
 x1119
 x1120
 x1121
 x1122
 x1123
 x1124
 x1125
 x1126
 x1127
 x1128
 x1129
 x1130
 x1131
 x1132
 x1133
 x1134
 x1135
 x1136
 x1137
 x1138
 x1139
 x1140
 x1141
 x1142
 x1143
 x1144
 x1145
 x1146
 x1147
 x1148
 x1149
 x1150
 x1151
 x1152
 x1153
 x1154
 x1155
 x1156
 x1157
 x1158
 x1159
 x1160
 x1161
 x1162
 x1163
 x1164
 x1165
 x1166
 x1167
 x1168
 x1169
 x1170
 x1171
 x1172
 x1173
 x1174
 x1175
 x1176
 x1177
 x1178
 x1179
 x1180
 x1181
 x1182
 x1183
 x1184
 x1185
 x1186
 x1187
 x1188
 x1189
 x1190
 x1191
 x1192
 x1193
 x1194
 x1195
 x1196
 x1197
 x1198
 x1199
 x1200
 x1201
 x1202
 x1203
 x1204
 x1205
 x1206
 x1207
 x1208
 x1209
 x1210
 x1211
 x1212
 x1213
 x1214
 x1215
 x1216
 x1217
 x1218
 x1219
 x1220
 x1221
 x1222
 x1223
 x1224
 x1225
 x1226
 x1227
 x1228
 x1229
 x1230
 x1231
 x1232
 x1233
 x1234
 x1235
 x1236
 x1237
 x1238
 x1239
 x1240
 x1241
 x1242
 x1243
 x1244
 x1245
 x1246
 x1247
 x1248
 x1249
 x1250
 x1251
 x1252
 x1253
 x1254
 x1255
 x1256
 x1257
 x1258
 x1259
 x1260
 x1261
 x1262
 x1263
 x1264
 x1265
 x1266
 x1267
 x1268
 x1269
 x1270
 x1271
 x1272
 x1273
 x1274
 x1275
 x1276
 x1277
 x1278
 x1279
 x1280
 x1281
 x1282
 x1283
 x1284
 x1285
 x1286
 x1287
 x1288
 x1289
 x1290
 x1291
 x1292
 x1293
 x1294
 x1295
 x1296
 x1297
 x1298
 x1299
 x1300
 x1301
 x1302
 x1303
 x1304
 x1305
 x1306
 x1307
 x1308
 x1309
 x1310
 x1311
 x1312
 x1313
 x1314
 x1315
 x1316
 x1317
 x1318
 x1319
 x1320
 x1321
 x1322
 x1323
 x1324
 x1325
 x1326
 x1327
 x1328
 x1329
 x1330
 x1331
 x1332
 x1333
 x1334
 x1335
 x1336
 x1337
 x1338
 x1339
 x1340
 x1341
 x1342
 x1343
 x1344
 x1345
 x1346
 x1347
 x1348
 x1349
 x1350
 x1351
 x1352
 x1353
 x1354
 x1355
 x1356
 x1357
 x1358
 x1359
 x1360
 x1361
 x1362
 x1363
 x1364
 x1365
 x1366
 x1367
 x1368
 x1369
 x1370
 x1371
 x1372
 x1373
 x1374
 x1375
 x1376
 x1377
 x1378
 x1379
 x1380
 x1381
 x1382
 x1383
 x1384
 x1385
 x1386
 x1387
 x1388
 x1389
 x1390
 x1391
 x1392
 x1393
 x1394
 x1395
 x1396
 x1397
 x1398
 x1399
 x1400
 x1401
 x1402
 x1403
 x1404
 x1405
 x1406
 x1407
 x1408
 x1409
 x1410
 x1411
 x1412
 x1413
 x1414
 x1415
 x1416
 x1417
 x1418
 x1419
 x1420
 x1421
 x1422
 x1423
 x1424
 x1425
 x1426
 x1427
 x1428
 x1429
 x1430
 x1431
 x1432
 x1433
 x1434
 x1435
 x1436
 x1437
 x1438
 x1439
 x1440
 x1441
 x1442
 x1443
 x1444
 x1445
 x1446
 x1447
 x1448
 x1449
 x1450
 x1451
 x1452
 x1453
 x1454
 x1455
 x1456
 x1457
 x1458
 x1459
 x1460
 x1461
 x1462
 x1463
 x1464
 x1465
 x1466
 x1467
 x1468
 x1469
 x1470
 x1471
 x1472
 x1473
 x1474
 x1475
 x1476
 x1477
 x1478
 x1479
 x1480
 x1481
 x1482
 x1483
 x1484
 x1485
 x1486
 x1487
 x1488
 x1489
 x1490
 x1491
 x1492
 x1493
 x1494
 x1495
 x1496
 x1497
 x1498
 x1499
 x1500
 x1501
 x1502
 x1503
 x1504
 x1505
 x1506
 x1507
 x1508
 x1509
 x1510
 x1511
 x1512
 x1513
 x1514
 x1515
 x1516
 x1517
 x1518
 x1519
 x1520
 x1521
 x1522
 x1523
 x1524
 x1525
 x1526
 x1527
 x1528
 x1529
 x1530
 x1531
 x1532
 x1533
 x1534
 x1535
 x1536
 x1537
 x1538
 x1539
 x1540
 x1541
 x1542
 x1543
 x1544
 x1545
 x1546
 x1547
 x1548
 x1549
 x1550
 x1551
 x1552
 x1553
 x1554
 x1555
 x1556
 x1557
 x1558
 x1559
 x1560
 x1561
 x1562
 x1563
 x1564
 x1565
 x1566
 x1567
 x1568
 x1569
 x1570
 x1571
 x1572
 x1573
 x1574
 x1575
 x1576
 x1577
 x1578
 x1579
 x1580
 x1581
 x1582
 x1583
 x1584
 x1585
 x1586
 x1587
 x1588
 x1589
 x1590
 x1591
 x1592
 x1593
 x1594
 x1595
 x1596
 x1597
 x1598
 x1599
 x1600
 x1601
 x1602
 x1603
 x1604
 x1605
 x1606
 x1607
 x1608
 x1609
 x1610
 x1611
 x1612
 x1613
 x1614
 x1615
 x1616
 x1617
 x1618
 x1619
 x1620
 x1621
 x1622
 x1623
 x1624
 x1625
 x1626
 x1627
 x1628
 x1629
 x1630
 x1631
 x1632
 x1633
 x1634
 x1635
 x1636
 x1637
 x1638
 x1639
 x1640
 x1641
 x1642
 x1643
 x1644
 x1645
 x1646
 x1647
 x1648
 x1649
 x1650
 x1651
 x1652
 x1653
 x1654
 x1655
 x1656
 x1657
 x1658
 x1659
 x1660
 x1661
 x1662
 x1663
 x1664
 x1665
 x1666
 x1667
 x1668
 x1669
 x1670
 x1671
 x1672
 x1673
 x1674
 x1675
 x1676
 x1677
 x1678
 x1679
 x1680
 x1681
 x1682
 x1683
 x1684
 x1685
 x1686
 x1687
 x1688
 x1689
 x1690
 x1691
 x1692
 x1693
 x1694
 x1695
 x1696
 x1697
 x1698
 x1699
 x1700
 x1701
 x1702
 x1703
 x1704
 x1705
 x1706
 x1707
 x1708
 x1709
 x1710
 x1711
 x1712
 x1713
 x1714
 x1715
 x1716
 x1717
 x1718
 x1719
 x1720
 x1721
 x1722
 x1723
 x1724
 x1725
 x1726
 x1727
 x1728
 x1729
 x1730
 x1731
 x1732
 x1733
 x1734
 x1735
 x1736
 x1737
 x1738
 x1739
 x1740
 x1741
 x1742
 x1743
 x1744
 x1745
 x1746
 x1747
 x1748
 x1749
 x1750
 x1751
 x1752
 x1753
 x1754
 x1755
 x1756
 x1757
 x1758
 x1759
 x1760
 x1761
 x1762
 x1763
 x1764
 x1765
 x1766
 x1767
 x1768
 x1769
 x1770
 x1771
 x1772
 x1773
 x1774
 x1775
 x1776
 x1777
 x1778
 x1779
 x1780
 x1781
 x1782
 x1783
 x1784
 x1785
 x1786
 x1787
 x1788
 x1789
 x1790
 x1791
 x1792
 x1793
 x1794
 x1795
 x1796
 x1797
 x1798
 x1799
 x1800
 x1801
 x1802
 x1803
 x1804
 x1805
 x1806
 x1807
 x1808
 x1809
 x1810
 x1811
 x1812
 x1813
 x1814
 x1815
 x1816
 x1817
 x1818
 x1819
 x1820
 x1821
 x1822
 x1823
 x1824
 x1825
 x1826
 x1827
 x1828
 x1829
 x1830
 x1831
 x1832
 x1833
 x1834
 x1835
 x1836
 x1837
 x1838
 x1839
 x1840
 x1841
 x1842
 x1843
 x1844
 x1845
 x1846
 x1847
 x1848
 x1849
 x1850
 x1851
 x1852
 x1853
 x1854
 x1855
 x1856
 x1857
 x1858
 x1859
 x1860
 x1861
 x1862
 x1863
 x1864
 x1865
 x1866
 x1867
 x1868
 x1869
 x1870
 x1871
 x1872
 x1873
 x1874
 x1875
 x1876
 x1877
 x1878
 x1879
 x1880
 x1881
 x1882
 x1883
 x1884
 x1885
 x1886
 x1887
 x1888
 x1889
 x1890
 x1891
 x1892
 x1893
 x1894
 x1895
 x1896
 x1897
 x1898
 x1899
 x1900
 x1901
 x1902
 x1903
 x1904
 x1905
 x1906
 x1907
 x1908
 x1909
 x1910
 x1911
 x1912
 x1913
 x1914
 x1915
 x1916
 x1917
 x1918
 x1919
 x1920
 x1921
 x1922
 x1923
 x1924
 x1925
 x1926
 x1927
 x1928
 x1929
 x1930
 x1931
 x1932
 x1933
 x1934
 x1935
 x1936
 x1937
 x1938
 x1939
 x1940
 x1941
 x1942
 x1943
 x1944
 x1945
 x1946
 x1947
 x1948
 x1949
 x1950
 x1951
 x1952
 x1953
 x1954
 x1955
 x1956
 x1957
 x1958
 x1959
 x1960
 x1961
 x1962
 x1963
 x1964
 x1965
 x1966
 x1967
 x1968
 x1969
 x1970
 x1971
 x1972
 x1973
 x1974
 x1975
 x1976
 x1977
 x1978
 x1979
 x1980
 x1981
 x1982
 x1983
 x1984
 x1985
 x1986
 x1987
 x1988
 x1989
 x1990
 x1991
 x1992
 x1993
 x1994
 x1995
 x1996
 x1997
 x1998
 x1999
 x2000
 x2001
 x2002
 x2003
 x2004
 x2005
 x2006
 x2007
 x2008
 x2009
 x2010
 x2011
 x2012
 x2013
 x2014
 x2015
 x2016
 x2017
 x2018
 x2019
 x2020
 x2021
 x2022
 x2023
 x2024
 x2025
 x2026
 x2027
 x2028
 x2029
 x2030
 x2031
 x2032
 x2033
 x2034
 x2035
 x2036
 x2037
 x2038
 x2039
 x2040
 x2041
 x2042
 x2043
 x2044
 x2045
 x2046
 x2047
End
