c var 1 x0
c var 2 x1
c var 3 x2
c var 4 x3
c var 5 x4
c var 6 x5
c var 7 x6
c var 8 x7
c forbid window0 {'x0': 0, 'x1': 0, 'x2': 0}
c forbid window0 {'x0': 1, 'x1': 1, 'x2': 1}
c forbid window1 {'x1': 0, 'x2': 0, 'x3': 0}
c forbid window1 {'x1': 1, 'x2': 1, 'x3': 1}
c forbid window2 {'x2': 0, 'x3': 0, 'x4': 0}
c forbid window2 {'x2': 1, 'x3': 1, 'x4': 1}
c forbid window3 {'x3': 0, 'x4': 0, 'x5': 0}
c forbid window3 {'x3': 1, 'x4': 1, 'x5': 1}
c forbid window4 {'x4': 0, 'x5': 0, 'x6': 0}
c forbid window4 {'x4': 1, 'x5': 1, 'x6': 1}
c forbid window5 {'x5': 0, 'x6': 0, 'x7': 0}
c forbid window5 {'x5': 1, 'x6': 1, 'x7': 1}
p cnf 8 12
1 2 3 0
-1 -2 -3 0
2 3 4 0
-2 -3 -4 0
3 4 5 0
-3 -4 -5 0
4 5 6 0
-4 -5 -6 0
5 6 7 0
-5 -6 -7 0
6 7 8 0
-6 -7 -8 0
