\ Boolean forbidden-tuple encoding
Minimize
 obj: 0
Subject To
 c0_window0: x0 + x1 + x2 >= 1
 c1_window0: - x0 - x1 - x2 >= -2
 c2_window1: x1 + x2 + x3 >= 1
 c3_window1: - x1 - x2 - x3 >= -2
 c4_window2: x2 + x3 + x4 >= 1
 c5_window2: - x2 - x3 - x4 >= -2
 c6_window3: x3 + x4 + x5 >= 1
 c7_window3: - x3 - x4 - x5 >= -2
 c8_window4: x4 + x5 + x6 >= 1
 c9_window4: - x4 - x5 - x6 >= -2
 c10_window5: x5 + x6 + x7 >= 1
 c11_window5: - x5 - x6 - x7 >= -2
 c12_window6: x6 + x7 + x8 >= 1
 c13_window6: - x6 - x7 - x8 >= -2
 c14_window7: x7 + x8 + x9 >= 1
 c15_window7: - x7 - x8 - x9 >= -2
 c16_window8: x8 + x9 + x10 >= 1
 c17_window8: - x8 - x9 - x10 >= -2
 c18_window9: x9 + x10 + x11 >= 1
 c19_window9: - x9 - x10 - x11 >= -2
 c20_window10: x10 + x11 + x12 >= 1
 c21_window10: - x10 - x11 - x12 >= -2
 c22_window11: x11 + x12 + x13 >= 1
 c23_window11: - x11 - x12 - x13 >= -2
 c24_window12: x12 + x13 + x14 >= 1
 c25_window12: - x12 - x13 - x14 >= -2
 c26_window13: x13 + x14 + x15 >= 1
 c27_window13: - x13 - x14 - x15 >= -2
 c28_window14: x14 + x15 + x16 >= 1
 c29_window14: - x14 - x15 - x16 >= -2
 c30_window15: x15 + x16 + x17 >= 1
 c31_window15: - x15 - x16 - x17 >= -2
 c32_window16: x16 + x17 + x18 >= 1
 c33_window16: - x16 - x17 - x18 >= -2
 c34_window17: x17 + x18 + x19 >= 1
 c35_window17: - x17 - x18 - x19 >= -2
 c36_window18: x18 + x19 + x20 >= 1
 c37_window18: - x18 - x19 - x20 >= -2
 c38_window19: x19 + x20 + x21 >= 1
 c39_window19: - x19 - x20 - x21 >= -2
 c40_window20: x20 + x21 + x22 >= 1
 c41_window20: - x20 - x21 - x22 >= -2
 c42_window21: x21 + x22 + x23 >= 1
 c43_window21: - x21 - x22 - x23 >= -2
 c44_window22: x22 + x23 + x24 >= 1
 c45_window22: - x22 - x23 - x24 >= -2
 c46_window23: x23 + x24 + x25 >= 1
 c47_window23: - x23 - x24 - x25 >= -2
 c48_window24: x24 + x25 + x26 >= 1
 c49_window24: - x24 - x25 - x26 >= -2
 c50_window25: x25 + x26 + x27 >= 1
 c51_window25: - x25 - x26 - x27 >= -2
 c52_window26: x26 + x27 + x28 >= 1
 c53_window26: - x26 - x27 - x28 >= -2
 c54_window27: x27 + x28 + x29 >= 1
 c55_window27: - x27 - x28 - x29 >= -2
 c56_window28: x28 + x29 + x30 >= 1
 c57_window28: - x28 - x29 - x30 >= -2
 c58_window29: x29 + x30 + x31 >= 1
 c59_window29: - x29 - x30 - x31 >= -2
 c60_window30: x30 + x31 + x32 >= 1
 c61_window30: - x30 - x31 - x32 >= -2
 c62_window31: x31 + x32 + x33 >= 1
 c63_window31: - x31 - x32 - x33 >= -2
 c64_window32: x32 + x33 + x34 >= 1
 c65_window32: - x32 - x33 - x34 >= -2
 c66_window33: x33 + x34 + x35 >= 1
 c67_window33: - x33 - x34 - x35 >= -2
 c68_window34: x34 + x35 + x36 >= 1
 c69_window34: - x34 - x35 - x36 >= -2
 c70_window35: x35 + x36 + x37 >= 1
 c71_window35: - x35 - x36 - x37 >= -2
 c72_window36: x36 + x37 + x38 >= 1
 c73_window36: - x36 - x37 - x38 >= -2
 c74_window37: x37 + x38 + x39 >= 1
 c75_window37: - x37 - x38 - x39 >= -2
 c76_window38: x38 + x39 + x40 >= 1
 c77_window38: - x38 - x39 - x40 >= -2
 c78_window39: x39 + x40 + x41 >= 1
 c79_window39: - x39 - x40 - x41 >= -2
 c80_window40: x40 + x41 + x42 >= 1
 c81_window40: - x40 - x41 - x42 >= -2
 c82_window41: x41 + x42 + x43 >= 1
 c83_window41: - x41 - x42 - x43 >= -2
 c84_window42: x42 + x43 + x44 >= 1
 c85_window42: - x42 - x43 - x44 >= -2
 c86_window43: x43 + x44 + x45 >= 1
 c87_window43: - x43 - x44 - x45 >= -2
 c88_window44: x44 + x45 + x46 >= 1
 c89_window44: - x44 - x45 - x46 >= -2
 c90_window45: x45 + x46 + x47 >= 1
 c91_window45: - x45 - x46 - x47 >= -2
 c92_window46: x46 + x47 + x48 >= 1
 c93_window46: - x46 - x47 - x48 >= -2
 c94_window47: x47 + x48 + x49 >= 1
 c95_window47: - x47 - x48 - x49 >= -2
 c96_window48: x48 + x49 + x50 >= 1
 c97_window48: - x48 - x49 - x50 >= -2
 c98_window49: x49 + x50 + x51 >= 1
 c99_window49: - x49 - x50 - x51 >= -2
 c100_window50: x50 + x51 + x52 >= 1
 c101_window50: - x50 - x51 - x52 >= -2
 c102_window51: x51 + x52 + x53 >= 1
 c103_window51: - x51 - x52 - x53 >= -2
 c104_window52: x52 + x53 + x54 >= 1
 c105_window52: - x52 - x53 - x54 >= -2
 c106_window53: x53 + x54 + x55 >= 1
 c107_window53: - x53 - x54 - x55 >= -2
 c108_window54: x54 + x55 + x56 >= 1
 c109_window54: - x54 - x55 - x56 >= -2
 c110_window55: x55 + x56 + x57 >= 1
 c111_window55: - x55 - x56 - x57 >= -2
 c112_window56: x56 + x57 + x58 >= 1
 c113_window56: - x56 - x57 - x58 >= -2
 c114_window57: x57 + x58 + x59 >= 1
 c115_window57: - x57 - x58 - x59 >= -2
 c116_window58: x58 + x59 + x60 >= 1
 c117_window58: - x58 - x59 - x60 >= -2
 c118_window59: x59 + x60 + x61 >= 1
 c119_window59: - x59 - x60 - x61 >= -2
 c120_window60: x60 + x61 + x62 >= 1
 c121_window60: - x60 - x61 - x62 >= -2
 c122_window61: x61 + x62 + x63 >= 1
 c123_window61: - x61 - x62 - x63 >= -2
 c124_window62: x62 + x63 + x64 >= 1
 c125_window62: - x62 - x63 - x64 >= -2
 c126_window63: x63 + x64 + x65 >= 1
 c127_window63: - x63 - x64 - x65 >= -2
 c128_window64: x64 + x65 + x66 >= 1
 c129_window64: - x64 - x65 - x66 >= -2
 c130_window65: x65 + x66 + x67 >= 1
 c131_window65: - x65 - x66 - x67 >= -2
 c132_window66: x66 + x67 + x68 >= 1
 c133_window66: - x66 - x67 - x68 >= -2
 c134_window67: x67 + x68 + x69 >= 1
 c135_window67: - x67 - x68 - x69 >= -2
 c136_window68: x68 + x69 + x70 >= 1
 c137_window68: - x68 - x69 - x70 >= -2
 c138_window69: x69 + x70 + x71 >= 1
 c139_window69: - x69 - x70 - x71 >= -2
 c140_window70: x70 + x71 + x72 >= 1
 c141_window70: - x70 - x71 - x72 >= -2
 c142_window71: x71 + x72 + x73 >= 1
 c143_window71: - x71 - x72 - x73 >= -2
 c144_window72: x72 + x73 + x74 >= 1
 c145_window72: - x72 - x73 - x74 >= -2
 c146_window73: x73 + x74 + x75 >= 1
 c147_window73: - x73 - x74 - x75 >= -2
 c148_window74: x74 + x75 + x76 >= 1
 c149_window74: - x74 - x75 - x76 >= -2
 c150_window75: x75 + x76 + x77 >= 1
 c151_window75: - x75 - x76 - x77 >= -2
 c152_window76: x76 + x77 + x78 >= 1
 c153_window76: - x76 - x77 - x78 >= -2
 c154_window77: x77 + x78 + x79 >= 1
 c155_window77: - x77 - x78 - x79 >= -2
 c156_window78: x78 + x79 + x80 >= 1
 c157_window78: - x78 - x79 - x80 >= -2
 c158_window79: x79 + x80 + x81 >= 1
 c159_window79: - x79 - x80 - x81 >= -2
 c160_window80: x80 + x81 + x82 >= 1
 c161_window80: - x80 - x81 - x82 >= -2
 c162_window81: x81 + x82 + x83 >= 1
 c163_window81: - x81 - x82 - x83 >= -2
 c164_window82: x82 + x83 + x84 >= 1
 c165_window82: - x82 - x83 - x84 >= -2
 c166_window83: x83 + x84 + x85 >= 1
 c167_window83: - x83 - x84 - x85 >= -2
 c168_window84: x84 + x85 + x86 >= 1
 c169_window84: - x84 - x85 - x86 >= -2
 c170_window85: x85 + x86 + x87 >= 1
 c171_window85: - x85 - x86 - x87 >= -2
 c172_window86: x86 + x87 + x88 >= 1
 c173_window86: - x86 - x87 - x88 >= -2
 c174_window87: x87 + x88 + x89 >= 1
 c175_window87: - x87 - x88 - x89 >= -2
 c176_window88: x88 + x89 + x90 >= 1
 c177_window88: - x88 - x89 - x90 >= -2
 c178_window89: x89 + x90 + x91 >= 1
 c179_window89: - x89 - x90 - x91 >= -2
 c180_window90: x90 + x91 + x92 >= 1
 c181_window90: - x90 - x91 - x92 >= -2
 c182_window91: x91 + x92 + x93 >= 1
 c183_window91: - x91 - x92 - x93 >= -2
 c184_window92: x92 + x93 + x94 >= 1
 c185_window92: - x92 - x93 - x94 >= -2
 c186_window93: x93 + x94 + x95 >= 1
 c187_window93: - x93 - x94 - x95 >= -2
 c188_window94: x94 + x95 + x96 >= 1
 c189_window94: - x94 - x95 - x96 >= -2
 c190_window95: x95 + x96 + x97 >= 1
 c191_window95: - x95 - x96 - x97 >= -2
 c192_window96: x96 + x97 + x98 >= 1
 c193_window96: - x96 - x97 - x98 >= -2
 c194_window97: x97 + x98 + x99 >= 1
 c195_window97: - x97 - x98 - x99 >= -2
 c196_window98: x98 + x99 + x100 >= 1
 c197_window98: - x98 - x99 - x100 >= -2
 c198_window99: x99 + x100 + x101 >= 1
 c199_window99: - x99 - x100 - x101 >= -2
 c200_window100: x100 + x101 + x102 >= 1
 c201_window100: - x100 - x101 - x102 >= -2
 c202_window101: x101 + x102 + x103 >= 1
 c203_window101: - x101 - x102 - x103 >= -2
 c204_window102: x102 + x103 + x104 >= 1
 c205_window102: - x102 - x103 - x104 >= -2
 c206_window103: x103 + x104 + x105 >= 1
 c207_window103: - x103 - x104 - x105 >= -2
 c208_window104: x104 + x105 + x106 >= 1
 c209_window104: - x104 - x105 - x106 >= -2
 c210_window105: x105 + x106 + x107 >= 1
 c211_window105: - x105 - x106 - x107 >= -2
 c212_window106: x106 + x107 + x108 >= 1
 c213_window106: - x106 - x107 - x108 >= -2
 c214_window107: x107 + x108 + x109 >= 1
 c215_window107: - x107 - x108 - x109 >= -2
 c216_window108: x108 + x109 + x110 >= 1
 c217_window108: - x108 - x109 - x110 >= -2
 c218_window109: x109 + x110 + x111 >= 1
 c219_window109: - x109 - x110 - x111 >= -2
 c220_window110: x110 + x111 + x112 >= 1
 c221_window110: - x110 - x111 - x112 >= -2
 c222_window111: x111 + x112 + x113 >= 1
 c223_window111: - x111 - x112 - x113 >= -2
 c224_window112: x112 + x113 + x114 >= 1
 c225_window112: - x112 - x113 - x114 >= -2
 c226_window113: x113 + x114 + x115 >= 1
 c227_window113: - x113 - x114 - x115 >= -2
 c228_window114: x114 + x115 + x116 >= 1
 c229_window114: - x114 - x115 - x116 >= -2
 c230_window115: x115 + x116 + x117 >= 1
 c231_window115: - x115 - x116 - x117 >= -2
 c232_window116: x116 + x117 + x118 >= 1
 c233_window116: - x116 - x117 - x118 >= -2
 c234_window117: x117 + x118 + x119 >= 1
 c235_window117: - x117 - x118 - x119 >= -2
 c236_window118: x118 + x119 + x120 >= 1
 c237_window118: - x118 - x119 - x120 >= -2
 c238_window119: x119 + x120 + x121 >= 1
 c239_window119: - x119 - x120 - x121 >= -2
 c240_window120: x120 + x121 + x122 >= 1
 c241_window120: - x120 - x121 - x122 >= -2
 c242_window121: x121 + x122 + x123 >= 1
 c243_window121: - x121 - x122 - x123 >= -2
 c244_window122: x122 + x123 + x124 >= 1
 c245_window122: - x122 - x123 - x124 >= -2
 c246_window123: x123 + x124 + x125 >= 1
 c247_window123: - x123 - x124 - x125 >= -2
 c248_window124: x124 + x125 + x126 >= 1
 c249_window124: - x124 - x125 - x126 >= -2
 c250_window125: x125 + x126 + x127 >= 1
 c251_window125: - x125 - x126 - x127 >= -2
 c252_window126: x126 + x127 + x128 >= 1
 c253_window126: - x126 - x127 - x128 >= -2
 c254_window127: x127 + x128 + x129 >= 1
 c255_window127: - x127 - x128 - x129 >= -2
 c256_window128: x128 + x129 + x130 >= 1
 c257_window128: - x128 - x129 - x130 >= -2
 c258_window129: x129 + x130 + x131 >= 1
 c259_window129: - x129 - x130 - x131 >= -2
 c260_window130: x130 + x131 + x132 >= 1
 c261_window130: - x130 - x131 - x132 >= -2
 c262_window131: x131 + x132 + x133 >= 1
 c263_window131: - x131 - x132 - x133 >= -2
 c264_window132: x132 + x133 + x134 >= 1
 c265_window132: - x132 - x133 - x134 >= -2
 c266_window133: x133 + x134 + x135 >= 1
 c267_window133: - x133 - x134 - x135 >= -2
 c268_window134: x134 + x135 + x136 >= 1
 c269_window134: - x134 - x135 - x136 >= -2
 c270_window135: x135 + x136 + x137 >= 1
 c271_window135: - x135 - x136 - x137 >= -2
 c272_window136: x136 + x137 + x138 >= 1
 c273_window136: - x136 - x137 - x138 >= -2
 c274_window137: x137 + x138 + x139 >= 1
 c275_window137: - x137 - x138 - x139 >= -2
 c276_window138: x138 + x139 + x140 >= 1
 c277_window138: - x138 - x139 - x140 >= -2
 c278_window139: x139 + x140 + x141 >= 1
 c279_window139: - x139 - x140 - x141 >= -2
 c280_window140: x140 + x141 + x142 >= 1
 c281_window140: - x140 - x141 - x142 >= -2
 c282_window141: x141 + x142 + x143 >= 1
 c283_window141: - x141 - x142 - x143 >= -2
 c284_window142: x142 + x143 + x144 >= 1
 c285_window142: - x142 - x143 - x144 >= -2
 c286_window143: x143 + x144 + x145 >= 1
 c287_window143: - x143 - x144 - x145 >= -2
 c288_window144: x144 + x145 + x146 >= 1
 c289_window144: - x144 - x145 - x146 >= -2
 c290_window145: x145 + x146 + x147 >= 1
 c291_window145: - x145 - x146 - x147 >= -2
 c292_window146: x146 + x147 + x148 >= 1
 c293_window146: - x146 - x147 - x148 >= -2
 c294_window147: x147 + x148 + x149 >= 1
 c295_window147: - x147 - x148 - x149 >= -2
 c296_window148: x148 + x149 + x150 >= 1
 c297_window148: - x148 - x149 - x150 >= -2
 c298_window149: x149 + x150 + x151 >= 1
 c299_window149: - x149 - x150 - x151 >= -2
 c300_window150: x150 + x151 + x152 >= 1
 c301_window150: - x150 - x151 - x152 >= -2
 c302_window151: x151 + x152 + x153 >= 1
 c303_window151: - x151 - x152 - x153 >= -2
 c304_window152: x152 + x153 + x154 >= 1
 c305_window152: - x152 - x153 - x154 >= -2
 c306_window153: x153 + x154 + x155 >= 1
 c307_window153: - x153 - x154 - x155 >= -2
 c308_window154: x154 + x155 + x156 >= 1
 c309_window154: - x154 - x155 - x156 >= -2
 c310_window155: x155 + x156 + x157 >= 1
 c311_window155: - x155 - x156 - x157 >= -2
 c312_window156: x156 + x157 + x158 >= 1
 c313_window156: - x156 - x157 - x158 >= -2
 c314_window157: x157 + x158 + x159 >= 1
 c315_window157: - x157 - x158 - x159 >= -2
 c316_window158: x158 + x159 + x160 >= 1
 c317_window158: - x158 - x159 - x160 >= -2
 c318_window159: x159 + x160 + x161 >= 1
 c319_window159: - x159 - x160 - x161 >= -2
 c320_window160: x160 + x161 + x162 >= 1
 c321_window160: - x160 - x161 - x162 >= -2
 c322_window161: x161 + x162 + x163 >= 1
 c323_window161: - x161 - x162 - x163 >= -2
 c324_window162: x162 + x163 + x164 >= 1
 c325_window162: - x162 - x163 - x164 >= -2
 c326_window163: x163 + x164 + x165 >= 1
 c327_window163: - x163 - x164 - x165 >= -2
 c328_window164: x164 + x165 + x166 >= 1
 c329_window164: - x164 - x165 - x166 >= -2
 c330_window165: x165 + x166 + x167 >= 1
 c331_window165: - x165 - x166 - x167 >= -2
 c332_window166: x166 + x167 + x168 >= 1
 c333_window166: - x166 - x167 - x168 >= -2
 c334_window167: x167 + x168 + x169 >= 1
 c335_window167: - x167 - x168 - x169 >= -2
 c336_window168: x168 + x169 + x170 >= 1
 c337_window168: - x168 - x169 - x170 >= -2
 c338_window169: x169 + x170 + x171 >= 1
 c339_window169: - x169 - x170 - x171 >= -2
 c340_window170: x170 + x171 + x172 >= 1
 c341_window170: - x170 - x171 - x172 >= -2
 c342_window171: x171 + x172 + x173 >= 1
 c343_window171: - x171 - x172 - x173 >= -2
 c344_window172: x172 + x173 + x174 >= 1
 c345_window172: - x172 - x173 - x174 >= -2
 c346_window173: x173 + x174 + x175 >= 1
 c347_window173: - x173 - x174 - x175 >= -2
 c348_window174: x174 + x175 + x176 >= 1
 c349_window174: - x174 - x175 - x176 >= -2
 c350_window175: x175 + x176 + x177 >= 1
 c351_window175: - x175 - x176 - x177 >= -2
 c352_window176: x176 + x177 + x178 >= 1
 c353_window176: - x176 - x177 - x178 >= -2
 c354_window177: x177 + x178 + x179 >= 1
 c355_window177: - x177 - x178 - x179 >= -2
 c356_window178: x178 + x179 + x180 >= 1
 c357_window178: - x178 - x179 - x180 >= -2
 c358_window179: x179 + x180 + x181 >= 1
 c359_window179: - x179 - x180 - x181 >= -2
 c360_window180: x180 + x181 + x182 >= 1
 c361_window180: - x180 - x181 - x182 >= -2
 c362_window181: x181 + x182 + x183 >= 1
 c363_window181: - x181 - x182 - x183 >= -2
 c364_window182: x182 + x183 + x184 >= 1
 c365_window182: - x182 - x183 - x184 >= -2
 c366_window183: x183 + x184 + x185 >= 1
 c367_window183: - x183 - x184 - x185 >= -2
 c368_window184: x184 + x185 + x186 >= 1
 c369_window184: - x184 - x185 - x186 >= -2
 c370_window185: x185 + x186 + x187 >= 1
 c371_window185: - x185 - x186 - x187 >= -2
 c372_window186: x186 + x187 + x188 >= 1
 c373_window186: - x186 - x187 - x188 >= -2
 c374_window187: x187 + x188 + x189 >= 1
 c375_window187: - x187 - x188 - x189 >= -2
 c376_window188: x188 + x189 + x190 >= 1
 c377_window188: - x188 - x189 - x190 >= -2
 c378_window189: x189 + x190 + x191 >= 1
 c379_window189: - x189 - x190 - x191 >= -2
 c380_window190: x190 + x191 + x192 >= 1
 c381_window190: - x190 - x191 - x192 >= -2
 c382_window191: x191 + x192 + x193 >= 1
 c383_window191: - x191 - x192 - x193 >= -2
 c384_window192: x192 + x193 + x194 >= 1
 c385_window192: - x192 - x193 - x194 >= -2
 c386_window193: x193 + x194 + x195 >= 1
 c387_window193: - x193 - x194 - x195 >= -2
 c388_window194: x194 + x195 + x196 >= 1
 c389_window194: - x194 - x195 - x196 >= -2
 c390_window195: x195 + x196 + x197 >= 1
 c391_window195: - x195 - x196 - x197 >= -2
 c392_window196: x196 + x197 + x198 >= 1
 c393_window196: - x196 - x197 - x198 >= -2
 c394_window197: x197 + x198 + x199 >= 1
 c395_window197: - x197 - x198 - x199 >= -2
 c396_window198: x198 + x199 + x200 >= 1
 c397_window198: - x198 - x199 - x200 >= -2
 c398_window199: x199 + x200 + x201 >= 1
 c399_window199: - x199 - x200 - x201 >= -2
 c400_window200: x200 + x201 + x202 >= 1
 c401_window200: - x200 - x201 - x202 >= -2
 c402_window201: x201 + x202 + x203 >= 1
 c403_window201: - x201 - x202 - x203 >= -2
 c404_window202: x202 + x203 + x204 >= 1
 c405_window202: - x202 - x203 - x204 >= -2
 c406_window203: x203 + x204 + x205 >= 1
 c407_window203: - x203 - x204 - x205 >= -2
 c408_window204: x204 + x205 + x206 >= 1
 c409_window204: - x204 - x205 - x206 >= -2
 c410_window205: x205 + x206 + x207 >= 1
 c411_window205: - x205 - x206 - x207 >= -2
 c412_window206: x206 + x207 + x208 >= 1
 c413_window206: - x206 - x207 - x208 >= -2
 c414_window207: x207 + x208 + x209 >= 1
 c415_window207: - x207 - x208 - x209 >= -2
 c416_window208: x208 + x209 + x210 >= 1
 c417_window208: - x208 - x209 - x210 >= -2
 c418_window209: x209 + x210 + x211 >= 1
 c419_window209: - x209 - x210 - x211 >= -2
 c420_window210: x210 + x211 + x212 >= 1
 c421_window210: - x210 - x211 - x212 >= -2
 c422_window211: x211 + x212 + x213 >= 1
 c423_window211: - x211 - x212 - x213 >= -2
 c424_window212: x212 + x213 + x214 >= 1
 c425_window212: - x212 - x213 - x214 >= -2
 c426_window213: x213 + x214 + x215 >= 1
 c427_window213: - x213 - x214 - x215 >= -2
 c428_window214: x214 + x215 + x216 >= 1
 c429_window214: - x214 - x215 - x216 >= -2
 c430_window215: x215 + x216 + x217 >= 1
 c431_window215: - x215 - x216 - x217 >= -2
 c432_window216: x216 + x217 + x218 >= 1
 c433_window216: - x216 - x217 - x218 >= -2
 c434_window217: x217 + x218 + x219 >= 1
 c435_window217: - x217 - x218 - x219 >= -2
 c436_window218: x218 + x219 + x220 >= 1
 c437_window218: - x218 - x219 - x220 >= -2
 c438_window219: x219 + x220 + x221 >= 1
 c439_window219: - x219 - x220 - x221 >= -2
 c440_window220: x220 + x221 + x222 >= 1
 c441_window220: - x220 - x221 - x222 >= -2
 c442_window221: x221 + x222 + x223 >= 1
 c443_window221: - x221 - x222 - x223 >= -2
 c444_window222: x222 + x223 + x224 >= 1
 c445_window222: - x222 - x223 - x224 >= -2
 c446_window223: x223 + x224 + x225 >= 1
 c447_window223: - x223 - x224 - x225 >= -2
 c448_window224: x224 + x225 + x226 >= 1
 c449_window224: - x224 - x225 - x226 >= -2
 c450_window225: x225 + x226 + x227 >= 1
 c451_window225: - x225 - x226 - x227 >= -2
 c452_window226: x226 + x227 + x228 >= 1
 c453_window226: - x226 - x227 - x228 >= -2
 c454_window227: x227 + x228 + x229 >= 1
 c455_window227: - x227 - x228 - x229 >= -2
 c456_window228: x228 + x229 + x230 >= 1
 c457_window228: - x228 - x229 - x230 >= -2
 c458_window229: x229 + x230 + x231 >= 1
 c459_window229: - x229 - x230 - x231 >= -2
 c460_window230: x230 + x231 + x232 >= 1
 c461_window230: - x230 - x231 - x232 >= -2
 c462_window231: x231 + x232 + x233 >= 1
 c463_window231: - x231 - x232 - x233 >= -2
 c464_window232: x232 + x233 + x234 >= 1
 c465_window232: - x232 - x233 - x234 >= -2
 c466_window233: x233 + x234 + x235 >= 1
 c467_window233: - x233 - x234 - x235 >= -2
 c468_window234: x234 + x235 + x236 >= 1
 c469_window234: - x234 - x235 - x236 >= -2
 c470_window235: x235 + x236 + x237 >= 1
 c471_window235: - x235 - x236 - x237 >= -2
 c472_window236: x236 + x237 + x238 >= 1
 c473_window236: - x236 - x237 - x238 >= -2
 c474_window237: x237 + x238 + x239 >= 1
 c475_window237: - x237 - x238 - x239 >= -2
 c476_window238: x238 + x239 + x240 >= 1
 c477_window238: - x238 - x239 - x240 >= -2
 c478_window239: x239 + x240 + x241 >= 1
 c479_window239: - x239 - x240 - x241 >= -2
 c480_window240: x240 + x241 + x242 >= 1
 c481_window240: - x240 - x241 - x242 >= -2
 c482_window241: x241 + x242 + x243 >= 1
 c483_window241: - x241 - x242 - x243 >= -2
 c484_window242: x242 + x243 + x244 >= 1
 c485_window242: - x242 - x243 - x244 >= -2
 c486_window243: x243 + x244 + x245 >= 1
 c487_window243: - x243 - x244 - x245 >= -2
 c488_window244: x244 + x245 + x246 >= 1
 c489_window244: - x244 - x245 - x246 >= -2
 c490_window245: x245 + x246 + x247 >= 1
 c491_window245: - x245 - x246 - x247 >= -2
 c492_window246: x246 + x247 + x248 >= 1
 c493_window246: - x246 - x247 - x248 >= -2
 c494_window247: x247 + x248 + x249 >= 1
 c495_window247: - x247 - x248 - x249 >= -2
 c496_window248: x248 + x249 + x250 >= 1
 c497_window248: - x248 - x249 - x250 >= -2
 c498_window249: x249 + x250 + x251 >= 1
 c499_window249: - x249 - x250 - x251 >= -2
 c500_window250: x250 + x251 + x252 >= 1
 c501_window250: - x250 - x251 - x252 >= -2
 c502_window251: x251 + x252 + x253 >= 1
 c503_window251: - x251 - x252 - x253 >= -2
 c504_window252: x252 + x253 + x254 >= 1
 c505_window252: - x252 - x253 - x254 >= -2
 c506_window253: x253 + x254 + x255 >= 1
 c507_window253: - x253 - x254 - x255 >= -2
 c508_window254: x254 + x255 + x256 >= 1
 c509_window254: - x254 - x255 - x256 >= -2
 c510_window255: x255 + x256 + x257 >= 1
 c511_window255: - x255 - x256 - x257 >= -2
 c512_window256: x256 + x257 + x258 >= 1
 c513_window256: - x256 - x257 - x258 >= -2
 c514_window257: x257 + x258 + x259 >= 1
 c515_window257: - x257 - x258 - x259 >= -2
 c516_window258: x258 + x259 + x260 >= 1
 c517_window258: - x258 - x259 - x260 >= -2
 c518_window259: x259 + x260 + x261 >= 1
 c519_window259: - x259 - x260 - x261 >= -2
 c520_window260: x260 + x261 + x262 >= 1
 c521_window260: - x260 - x261 - x262 >= -2
 c522_window261: x261 + x262 + x263 >= 1
 c523_window261: - x261 - x262 - x263 >= -2
 c524_window262: x262 + x263 + x264 >= 1
 c525_window262: - x262 - x263 - x264 >= -2
 c526_window263: x263 + x264 + x265 >= 1
 c527_window263: - x263 - x264 - x265 >= -2
 c528_window264: x264 + x265 + x266 >= 1
 c529_window264: - x264 - x265 - x266 >= -2
 c530_window265: x265 + x266 + x267 >= 1
 c531_window265: - x265 - x266 - x267 >= -2
 c532_window266: x266 + x267 + x268 >= 1
 c533_window266: - x266 - x267 - x268 >= -2
 c534_window267: x267 + x268 + x269 >= 1
 c535_window267: - x267 - x268 - x269 >= -2
 c536_window268: x268 + x269 + x270 >= 1
 c537_window268: - x268 - x269 - x270 >= -2
 c538_window269: x269 + x270 + x271 >= 1
 c539_window269: - x269 - x270 - x271 >= -2
 c540_window270: x270 + x271 + x272 >= 1
 c541_window270: - x270 - x271 - x272 >= -2
 c542_window271: x271 + x272 + x273 >= 1
 c543_window271: - x271 - x272 - x273 >= -2
 c544_window272: x272 + x273 + x274 >= 1
 c545_window272: - x272 - x273 - x274 >= -2
 c546_window273: x273 + x274 + x275 >= 1
 c547_window273: - x273 - x274 - x275 >= -2
 c548_window274: x274 + x275 + x276 >= 1
 c549_window274: - x274 - x275 - x276 >= -2
 c550_window275: x275 + x276 + x277 >= 1
 c551_window275: - x275 - x276 - x277 >= -2
 c552_window276: x276 + x277 + x278 >= 1
 c553_window276: - x276 - x277 - x278 >= -2
 c554_window277: x277 + x278 + x279 >= 1
 c555_window277: - x277 - x278 - x279 >= -2
 c556_window278: x278 + x279 + x280 >= 1
 c557_window278: - x278 - x279 - x280 >= -2
 c558_window279: x279 + x280 + x281 >= 1
 c559_window279: - x279 - x280 - x281 >= -2
 c560_window280: x280 + x281 + x282 >= 1
 c561_window280: - x280 - x281 - x282 >= -2
 c562_window281: x281 + x282 + x283 >= 1
 c563_window281: - x281 - x282 - x283 >= -2
 c564_window282: x282 + x283 + x284 >= 1
 c565_window282: - x282 - x283 - x284 >= -2
 c566_window283: x283 + x284 + x285 >= 1
 c567_window283: - x283 - x284 - x285 >= -2
 c568_window284: x284 + x285 + x286 >= 1
 c569_window284: - x284 - x285 - x286 >= -2
 c570_window285: x285 + x286 + x287 >= 1
 c571_window285: - x285 - x286 - x287 >= -2
 c572_window286: x286 + x287 + x288 >= 1
 c573_window286: - x286 - x287 - x288 >= -2
 c574_window287: x287 + x288 + x289 >= 1
 c575_window287: - x287 - x288 - x289 >= -2
 c576_window288: x288 + x289 + x290 >= 1
 c577_window288: - x288 - x289 - x290 >= -2
 c578_window289: x289 + x290 + x291 >= 1
 c579_window289: - x289 - x290 - x291 >= -2
 c580_window290: x290 + x291 + x292 >= 1
 c581_window290: - x290 - x291 - x292 >= -2
 c582_window291: x291 + x292 + x293 >= 1
 c583_window291: - x291 - x292 - x293 >= -2
 c584_window292: x292 + x293 + x294 >= 1
 c585_window292: - x292 - x293 - x294 >= -2
 c586_window293: x293 + x294 + x295 >= 1
 c587_window293: - x293 - x294 - x295 >= -2
 c588_window294: x294 + x295 + x296 >= 1
 c589_window294: - x294 - x295 - x296 >= -2
 c590_window295: x295 + x296 + x297 >= 1
 c591_window295: - x295 - x296 - x297 >= -2
 c592_window296: x296 + x297 + x298 >= 1
 c593_window296: - x296 - x297 - x298 >= -2
 c594_window297: x297 + x298 + x299 >= 1
 c595_window297: - x297 - x298 - x299 >= -2
 c596_window298: x298 + x299 + x300 >= 1
 c597_window298: - x298 - x299 - x300 >= -2
 c598_window299: x299 + x300 + x301 >= 1
 c599_window299: - x299 - x300 - x301 >= -2
 c600_window300: x300 + x301 + x302 >= 1
 c601_window300: - x300 - x301 - x302 >= -2
 c602_window301: x301 + x302 + x303 >= 1
 c603_window301: - x301 - x302 - x303 >= -2
 c604_window302: x302 + x303 + x304 >= 1
 c605_window302: - x302 - x303 - x304 >= -2
 c606_window303: x303 + x304 + x305 >= 1
 c607_window303: - x303 - x304 - x305 >= -2
 c608_window304: x304 + x305 + x306 >= 1
 c609_window304: - x304 - x305 - x306 >= -2
 c610_window305: x305 + x306 + x307 >= 1
 c611_window305: - x305 - x306 - x307 >= -2
 c612_window306: x306 + x307 + x308 >= 1
 c613_window306: - x306 - x307 - x308 >= -2
 c614_window307: x307 + x308 + x309 >= 1
 c615_window307: - x307 - x308 - x309 >= -2
 c616_window308: x308 + x309 + x310 >= 1
 c617_window308: - x308 - x309 - x310 >= -2
 c618_window309: x309 + x310 + x311 >= 1
 c619_window309: - x309 - x310 - x311 >= -2
 c620_window310: x310 + x311 + x312 >= 1
 c621_window310: - x310 - x311 - x312 >= -2
 c622_window311: x311 + x312 + x313 >= 1
 c623_window311: - x311 - x312 - x313 >= -2
 c624_window312: x312 + x313 + x314 >= 1
 c625_window312: - x312 - x313 - x314 >= -2
 c626_window313: x313 + x314 + x315 >= 1
 c627_window313: - x313 - x314 - x315 >= -2
 c628_window314: x314 + x315 + x316 >= 1
 c629_window314: - x314 - x315 - x316 >= -2
 c630_window315: x315 + x316 + x317 >= 1
 c631_window315: - x315 - x316 - x317 >= -2
 c632_window316: x316 + x317 + x318 >= 1
 c633_window316: - x316 - x317 - x318 >= -2
 c634_window317: x317 + x318 + x319 >= 1
 c635_window317: - x317 - x318 - x319 >= -2
 c636_window318: x318 + x319 + x320 >= 1
 c637_window318: - x318 - x319 - x320 >= -2
 c638_window319: x319 + x320 + x321 >= 1
 c639_window319: - x319 - x320 - x321 >= -2
 c640_window320: x320 + x321 + x322 >= 1
 c641_window320: - x320 - x321 - x322 >= -2
 c642_window321: x321 + x322 + x323 >= 1
 c643_window321: - x321 - x322 - x323 >= -2
 c644_window322: x322 + x323 + x324 >= 1
 c645_window322: - x322 - x323 - x324 >= -2
 c646_window323: x323 + x324 + x325 >= 1
 c647_window323: - x323 - x324 - x325 >= -2
 c648_window324: x324 + x325 + x326 >= 1
 c649_window324: - x324 - x325 - x326 >= -2
 c650_window325: x325 + x326 + x327 >= 1
 c651_window325: - x325 - x326 - x327 >= -2
 c652_window326: x326 + x327 + x328 >= 1
 c653_window326: - x326 - x327 - x328 >= -2
 c654_window327: x327 + x328 + x329 >= 1
 c655_window327: - x327 - x328 - x329 >= -2
 c656_window328: x328 + x329 + x330 >= 1
 c657_window328: - x328 - x329 - x330 >= -2
 c658_window329: x329 + x330 + x331 >= 1
 c659_window329: - x329 - x330 - x331 >= -2
 c660_window330: x330 + x331 + x332 >= 1
 c661_window330: - x330 - x331 - x332 >= -2
 c662_window331: x331 + x332 + x333 >= 1
 c663_window331: - x331 - x332 - x333 >= -2
 c664_window332: x332 + x333 + x334 >= 1
 c665_window332: - x332 - x333 - x334 >= -2
 c666_window333: x333 + x334 + x335 >= 1
 c667_window333: - x333 - x334 - x335 >= -2
 c668_window334: x334 + x335 + x336 >= 1
 c669_window334: - x334 - x335 - x336 >= -2
 c670_window335: x335 + x336 + x337 >= 1
 c671_window335: - x335 - x336 - x337 >= -2
 c672_window336: x336 + x337 + x338 >= 1
 c673_window336: - x336 - x337 - x338 >= -2
 c674_window337: x337 + x338 + x339 >= 1
 c675_window337: - x337 - x338 - x339 >= -2
 c676_window338: x338 + x339 + x340 >= 1
 c677_window338: - x338 - x339 - x340 >= -2
 c678_window339: x339 + x340 + x341 >= 1
 c679_window339: - x339 - x340 - x341 >= -2
 c680_window340: x340 + x341 + x342 >= 1
 c681_window340: - x340 - x341 - x342 >= -2
 c682_window341: x341 + x342 + x343 >= 1
 c683_window341: - x341 - x342 - x343 >= -2
 c684_window342: x342 + x343 + x344 >= 1
 c685_window342: - x342 - x343 - x344 >= -2
 c686_window343: x343 + x344 + x345 >= 1
 c687_window343: - x343 - x344 - x345 >= -2
 c688_window344: x344 + x345 + x346 >= 1
 c689_window344: - x344 - x345 - x346 >= -2
 c690_window345: x345 + x346 + x347 >= 1
 c691_window345: - x345 - x346 - x347 >= -2
 c692_window346: x346 + x347 + x348 >= 1
 c693_window346: - x346 - x347 - x348 >= -2
 c694_window347: x347 + x348 + x349 >= 1
 c695_window347: - x347 - x348 - x349 >= -2
 c696_window348: x348 + x349 + x350 >= 1
 c697_window348: - x348 - x349 - x350 >= -2
 c698_window349: x349 + x350 + x351 >= 1
 c699_window349: - x349 - x350 - x351 >= -2
 c700_window350: x350 + x351 + x352 >= 1
 c701_window350: - x350 - x351 - x352 >= -2
 c702_window351: x351 + x352 + x353 >= 1
 c703_window351: - x351 - x352 - x353 >= -2
 c704_window352: x352 + x353 + x354 >= 1
 c705_window352: - x352 - x353 - x354 >= -2
 c706_window353: x353 + x354 + x355 >= 1
 c707_window353: - x353 - x354 - x355 >= -2
 c708_window354: x354 + x355 + x356 >= 1
 c709_window354: - x354 - x355 - x356 >= -2
 c710_window355: x355 + x356 + x357 >= 1
 c711_window355: - x355 - x356 - x357 >= -2
 c712_window356: x356 + x357 + x358 >= 1
 c713_window356: - x356 - x357 - x358 >= -2
 c714_window357: x357 + x358 + x359 >= 1
 c715_window357: - x357 - x358 - x359 >= -2
 c716_window358: x358 + x359 + x360 >= 1
 c717_window358: - x358 - x359 - x360 >= -2
 c718_window359: x359 + x360 + x361 >= 1
 c719_window359: - x359 - x360 - x361 >= -2
 c720_window360: x360 + x361 + x362 >= 1
 c721_window360: - x360 - x361 - x362 >= -2
 c722_window361: x361 + x362 + x363 >= 1
 c723_window361: - x361 - x362 - x363 >= -2
 c724_window362: x362 + x363 + x364 >= 1
 c725_window362: - x362 - x363 - x364 >= -2
 c726_window363: x363 + x364 + x365 >= 1
 c727_window363: - x363 - x364 - x365 >= -2
 c728_window364: x364 + x365 + x366 >= 1
 c729_window364: - x364 - x365 - x366 >= -2
 c730_window365: x365 + x366 + x367 >= 1
 c731_window365: - x365 - x366 - x367 >= -2
 c732_window366: x366 + x367 + x368 >= 1
 c733_window366: - x366 - x367 - x368 >= -2
 c734_window367: x367 + x368 + x369 >= 1
 c735_window367: - x367 - x368 - x369 >= -2
 c736_window368: x368 + x369 + x370 >= 1
 c737_window368: - x368 - x369 - x370 >= -2
 c738_window369: x369 + x370 + x371 >= 1
 c739_window369: - x369 - x370 - x371 >= -2
 c740_window370: x370 + x371 + x372 >= 1
 c741_window370: - x370 - x371 - x372 >= -2
 c742_window371: x371 + x372 + x373 >= 1
 c743_window371: - x371 - x372 - x373 >= -2
 c744_window372: x372 + x373 + x374 >= 1
 c745_window372: - x372 - x373 - x374 >= -2
 c746_window373: x373 + x374 + x375 >= 1
 c747_window373: - x373 - x374 - x375 >= -2
 c748_window374: x374 + x375 + x376 >= 1
 c749_window374: - x374 - x375 - x376 >= -2
 c750_window375: x375 + x376 + x377 >= 1
 c751_window375: - x375 - x376 - x377 >= -2
 c752_window376: x376 + x377 + x378 >= 1
 c753_window376: - x376 - x377 - x378 >= -2
 c754_window377: x377 + x378 + x379 >= 1
 c755_window377: - x377 - x378 - x379 >= -2
 c756_window378: x378 + x379 + x380 >= 1
 c757_window378: - x378 - x379 - x380 >= -2
 c758_window379: x379 + x380 + x381 >= 1
 c759_window379: - x379 - x380 - x381 >= -2
 c760_window380: x380 + x381 + x382 >= 1
 c761_window380: - x380 - x381 - x382 >= -2
 c762_window381: x381 + x382 + x383 >= 1
 c763_window381: - x381 - x382 - x383 >= -2
 c764_window382: x382 + x383 + x384 >= 1
 c765_window382: - x382 - x383 - x384 >= -2
 c766_window383: x383 + x384 + x385 >= 1
 c767_window383: - x383 - x384 - x385 >= -2
 c768_window384: x384 + x385 + x386 >= 1
 c769_window384: - x384 - x385 - x386 >= -2
 c770_window385: x385 + x386 + x387 >= 1
 c771_window385: - x385 - x386 - x387 >= -2
 c772_window386: x386 + x387 + x388 >= 1
 c773_window386: - x386 - x387 - x388 >= -2
 c774_window387: x387 + x388 + x389 >= 1
 c775_window387: - x387 - x388 - x389 >= -2
 c776_window388: x388 + x389 + x390 >= 1
 c777_window388: - x388 - x389 - x390 >= -2
 c778_window389: x389 + x390 + x391 >= 1
 c779_window389: - x389 - x390 - x391 >= -2
 c780_window390: x390 + x391 + x392 >= 1
 c781_window390: - x390 - x391 - x392 >= -2
 c782_window391: x391 + x392 + x393 >= 1
 c783_window391: - x391 - x392 - x393 >= -2
 c784_window392: x392 + x393 + x394 >= 1
 c785_window392: - x392 - x393 - x394 >= -2
 c786_window393: x393 + x394 + x395 >= 1
 c787_window393: - x393 - x394 - x395 >= -2
 c788_window394: x394 + x395 + x396 >= 1
 c789_window394: - x394 - x395 - x396 >= -2
 c790_window395: x395 + x396 + x397 >= 1
 c791_window395: - x395 - x396 - x397 >= -2
 c792_window396: x396 + x397 + x398 >= 1
 c793_window396: - x396 - x397 - x398 >= -2
 c794_window397: x397 + x398 + x399 >= 1
 c795_window397: - x397 - x398 - x399 >= -2
 c796_window398: x398 + x399 + x400 >= 1
 c797_window398: - x398 - x399 - x400 >= -2
 c798_window399: x399 + x400 + x401 >= 1
 c799_window399: - x399 - x400 - x401 >= -2
 c800_window400: x400 + x401 + x402 >= 1
 c801_window400: - x400 - x401 - x402 >= -2
 c802_window401: x401 + x402 + x403 >= 1
 c803_window401: - x401 - x402 - x403 >= -2
 c804_window402: x402 + x403 + x404 >= 1
 c805_window402: - x402 - x403 - x404 >= -2
 c806_window403: x403 + x404 + x405 >= 1
 c807_window403: - x403 - x404 - x405 >= -2
 c808_window404: x404 + x405 + x406 >= 1
 c809_window404: - x404 - x405 - x406 >= -2
 c810_window405: x405 + x406 + x407 >= 1
 c811_window405: - x405 - x406 - x407 >= -2
 c812_window406: x406 + x407 + x408 >= 1
 c813_window406: - x406 - x407 - x408 >= -2
 c814_window407: x407 + x408 + x409 >= 1
 c815_window407: - x407 - x408 - x409 >= -2
 c816_window408: x408 + x409 + x410 >= 1
 c817_window408: - x408 - x409 - x410 >= -2
 c818_window409: x409 + x410 + x411 >= 1
 c819_window409: - x409 - x410 - x411 >= -2
 c820_window410: x410 + x411 + x412 >= 1
 c821_window410: - x410 - x411 - x412 >= -2
 c822_window411: x411 + x412 + x413 >= 1
 c823_window411: - x411 - x412 - x413 >= -2
 c824_window412: x412 + x413 + x414 >= 1
 c825_window412: - x412 - x413 - x414 >= -2
 c826_window413: x413 + x414 + x415 >= 1
 c827_window413: - x413 - x414 - x415 >= -2
 c828_window414: x414 + x415 + x416 >= 1
 c829_window414: - x414 - x415 - x416 >= -2
 c830_window415: x415 + x416 + x417 >= 1
 c831_window415: - x415 - x416 - x417 >= -2
 c832_window416: x416 + x417 + x418 >= 1
 c833_window416: - x416 - x417 - x418 >= -2
 c834_window417: x417 + x418 + x419 >= 1
 c835_window417: - x417 - x418 - x419 >= -2
 c836_window418: x418 + x419 + x420 >= 1
 c837_window418: - x418 - x419 - x420 >= -2
 c838_window419: x419 + x420 + x421 >= 1
 c839_window419: - x419 - x420 - x421 >= -2
 c840_window420: x420 + x421 + x422 >= 1
 c841_window420: - x420 - x421 - x422 >= -2
 c842_window421: x421 + x422 + x423 >= 1
 c843_window421: - x421 - x422 - x423 >= -2
 c844_window422: x422 + x423 + x424 >= 1
 c845_window422: - x422 - x423 - x424 >= -2
 c846_window423: x423 + x424 + x425 >= 1
 c847_window423: - x423 - x424 - x425 >= -2
 c848_window424: x424 + x425 + x426 >= 1
 c849_window424: - x424 - x425 - x426 >= -2
 c850_window425: x425 + x426 + x427 >= 1
 c851_window425: - x425 - x426 - x427 >= -2
 c852_window426: x426 + x427 + x428 >= 1
 c853_window426: - x426 - x427 - x428 >= -2
 c854_window427: x427 + x428 + x429 >= 1
 c855_window427: - x427 - x428 - x429 >= -2
 c856_window428: x428 + x429 + x430 >= 1
 c857_window428: - x428 - x429 - x430 >= -2
 c858_window429: x429 + x430 + x431 >= 1
 c859_window429: - x429 - x430 - x431 >= -2
 c860_window430: x430 + x431 + x432 >= 1
 c861_window430: - x430 - x431 - x432 >= -2
 c862_window431: x431 + x432 + x433 >= 1
 c863_window431: - x431 - x432 - x433 >= -2
 c864_window432: x432 + x433 + x434 >= 1
 c865_window432: - x432 - x433 - x434 >= -2
 c866_window433: x433 + x434 + x435 >= 1
 c867_window433: - x433 - x434 - x435 >= -2
 c868_window434: x434 + x435 + x436 >= 1
 c869_window434: - x434 - x435 - x436 >= -2
 c870_window435: x435 + x436 + x437 >= 1
 c871_window435: - x435 - x436 - x437 >= -2
 c872_window436: x436 + x437 + x438 >= 1
 c873_window436: - x436 - x437 - x438 >= -2
 c874_window437: x437 + x438 + x439 >= 1
 c875_window437: - x437 - x438 - x439 >= -2
 c876_window438: x438 + x439 + x440 >= 1
 c877_window438: - x438 - x439 - x440 >= -2
 c878_window439: x439 + x440 + x441 >= 1
 c879_window439: - x439 - x440 - x441 >= -2
 c880_window440: x440 + x441 + x442 >= 1
 c881_window440: - x440 - x441 - x442 >= -2
 c882_window441: x441 + x442 + x443 >= 1
 c883_window441: - x441 - x442 - x443 >= -2
 c884_window442: x442 + x443 + x444 >= 1
 c885_window442: - x442 - x443 - x444 >= -2
 c886_window443: x443 + x444 + x445 >= 1
 c887_window443: - x443 - x444 - x445 >= -2
 c888_window444: x444 + x445 + x446 >= 1
 c889_window444: - x444 - x445 - x446 >= -2
 c890_window445: x445 + x446 + x447 >= 1
 c891_window445: - x445 - x446 - x447 >= -2
 c892_window446: x446 + x447 + x448 >= 1
 c893_window446: - x446 - x447 - x448 >= -2
 c894_window447: x447 + x448 + x449 >= 1
 c895_window447: - x447 - x448 - x449 >= -2
 c896_window448: x448 + x449 + x450 >= 1
 c897_window448: - x448 - x449 - x450 >= -2
 c898_window449: x449 + x450 + x451 >= 1
 c899_window449: - x449 - x450 - x451 >= -2
 c900_window450: x450 + x451 + x452 >= 1
 c901_window450: - x450 - x451 - x452 >= -2
 c902_window451: x451 + x452 + x453 >= 1
 c903_window451: - x451 - x452 - x453 >= -2
 c904_window452: x452 + x453 + x454 >= 1
 c905_window452: - x452 - x453 - x454 >= -2
 c906_window453: x453 + x454 + x455 >= 1
 c907_window453: - x453 - x454 - x455 >= -2
 c908_window454: x454 + x455 + x456 >= 1
 c909_window454: - x454 - x455 - x456 >= -2
 c910_window455: x455 + x456 + x457 >= 1
 c911_window455: - x455 - x456 - x457 >= -2
 c912_window456: x456 + x457 + x458 >= 1
 c913_window456: - x456 - x457 - x458 >= -2
 c914_window457: x457 + x458 + x459 >= 1
 c915_window457: - x457 - x458 - x459 >= -2
 c916_window458: x458 + x459 + x460 >= 1
 c917_window458: - x458 - x459 - x460 >= -2
 c918_window459: x459 + x460 + x461 >= 1
 c919_window459: - x459 - x460 - x461 >= -2
 c920_window460: x460 + x461 + x462 >= 1
 c921_window460: - x460 - x461 - x462 >= -2
 c922_window461: x461 + x462 + x463 >= 1
 c923_window461: - x461 - x462 - x463 >= -2
 c924_window462: x462 + x463 + x464 >= 1
 c925_window462: - x462 - x463 - x464 >= -2
 c926_window463: x463 + x464 + x465 >= 1
 c927_window463: - x463 - x464 - x465 >= -2
 c928_window464: x464 + x465 + x466 >= 1
 c929_window464: - x464 - x465 - x466 >= -2
 c930_window465: x465 + x466 + x467 >= 1
 c931_window465: - x465 - x466 - x467 >= -2
 c932_window466: x466 + x467 + x468 >= 1
 c933_window466: - x466 - x467 - x468 >= -2
 c934_window467: x467 + x468 + x469 >= 1
 c935_window467: - x467 - x468 - x469 >= -2
 c936_window468: x468 + x469 + x470 >= 1
 c937_window468: - x468 - x469 - x470 >= -2
 c938_window469: x469 + x470 + x471 >= 1
 c939_window469: - x469 - x470 - x471 >= -2
 c940_window470: x470 + x471 + x472 >= 1
 c941_window470: - x470 - x471 - x472 >= -2
 c942_window471: x471 + x472 + x473 >= 1
 c943_window471: - x471 - x472 - x473 >= -2
 c944_window472: x472 + x473 + x474 >= 1
 c945_window472: - x472 - x473 - x474 >= -2
 c946_window473: x473 + x474 + x475 >= 1
 c947_window473: - x473 - x474 - x475 >= -2
 c948_window474: x474 + x475 + x476 >= 1
 c949_window474: - x474 - x475 - x476 >= -2
 c950_window475: x475 + x476 + x477 >= 1
 c951_window475: - x475 - x476 - x477 >= -2
 c952_window476: x476 + x477 + x478 >= 1
 c953_window476: - x476 - x477 - x478 >= -2
 c954_window477: x477 + x478 + x479 >= 1
 c955_window477: - x477 - x478 - x479 >= -2
 c956_window478: x478 + x479 + x480 >= 1
 c957_window478: - x478 - x479 - x480 >= -2
 c958_window479: x479 + x480 + x481 >= 1
 c959_window479: - x479 - x480 - x481 >= -2
 c960_window480: x480 + x481 + x482 >= 1
 c961_window480: - x480 - x481 - x482 >= -2
 c962_window481: x481 + x482 + x483 >= 1
 c963_window481: - x481 - x482 - x483 >= -2
 c964_window482: x482 + x483 + x484 >= 1
 c965_window482: - x482 - x483 - x484 >= -2
 c966_window483: x483 + x484 + x485 >= 1
 c967_window483: - x483 - x484 - x485 >= -2
 c968_window484: x484 + x485 + x486 >= 1
 c969_window484: - x484 - x485 - x486 >= -2
 c970_window485: x485 + x486 + x487 >= 1
 c971_window485: - x485 - x486 - x487 >= -2
 c972_window486: x486 + x487 + x488 >= 1
 c973_window486: - x486 - x487 - x488 >= -2
 c974_window487: x487 + x488 + x489 >= 1
 c975_window487: - x487 - x488 - x489 >= -2
 c976_window488: x488 + x489 + x490 >= 1
 c977_window488: - x488 - x489 - x490 >= -2
 c978_window489: x489 + x490 + x491 >= 1
 c979_window489: - x489 - x490 - x491 >= -2
 c980_window490: x490 + x491 + x492 >= 1
 c981_window490: - x490 - x491 - x492 >= -2
 c982_window491: x491 + x492 + x493 >= 1
 c983_window491: - x491 - x492 - x493 >= -2
 c984_window492: x492 + x493 + x494 >= 1
 c985_window492: - x492 - x493 - x494 >= -2
 c986_window493: x493 + x494 + x495 >= 1
 c987_window493: - x493 - x494 - x495 >= -2
 c988_window494: x494 + x495 + x496 >= 1
 c989_window494: - x494 - x495 - x496 >= -2
 c990_window495: x495 + x496 + x497 >= 1
 c991_window495: - x495 - x496 - x497 >= -2
 c992_window496: x496 + x497 + x498 >= 1
 c993_window496: - x496 - x497 - x498 >= -2
 c994_window497: x497 + x498 + x499 >= 1
 c995_window497: - x497 - x498 - x499 >= -2
 c996_window498: x498 + x499 + x500 >= 1
 c997_window498: - x498 - x499 - x500 >= -2
 c998_window499: x499 + x500 + x501 >= 1
 c999_window499: - x499 - x500 - x501 >= -2
 c1000_window500: x500 + x501 + x502 >= 1
 c1001_window500: - x500 - x501 - x502 >= -2
 c1002_window501: x501 + x502 + x503 >= 1
 c1003_window501: - x501 - x502 - x503 >= -2
 c1004_window502: x502 + x503 + x504 >= 1
 c1005_window502: - x502 - x503 - x504 >= -2
 c1006_window503: x503 + x504 + x505 >= 1
 c1007_window503: - x503 - x504 - x505 >= -2
 c1008_window504: x504 + x505 + x506 >= 1
 c1009_window504: - x504 - x505 - x506 >= -2
 c1010_window505: x505 + x506 + x507 >= 1
 c1011_window505: - x505 - x506 - x507 >= -2
 c1012_window506: x506 + x507 + x508 >= 1
 c1013_window506: - x506 - x507 - x508 >= -2
 c1014_window507: x507 + x508 + x509 >= 1
 c1015_window507: - x507 - x508 - x509 >= -2
 c1016_window508: x508 + x509 + x510 >= 1
 c1017_window508: - x508 - x509 - x510 >= -2
 c1018_window509: x509 + x510 + x511 >= 1
 c1019_window509: - x509 - x510 - x511 >= -2
Binary
 x0
 x1
 x2
 x3
 x4
 x5
 x6
 x7
 x8
 x9
 x10
 x11
 x12
 x13
 x14
 x15
 x16
 x17
 x18
 x19
 x20
 x21
 x22
 x23
 x24
 x25
 x26
 x27
 x28
 x29
 x30
 x31
 x32
 x33
 x34
 x35
 x36
 x37
 x38
 x39
 x40
 x41
 x42
 x43
 x44
 x45
 x46
 x47
 x48
 x49
 x50
 x51
 x52
 x53
 x54
 x55
 x56
 x57
 x58
 x59
 x60
 x61
 x62
 x63
 x64
 x65
 x66
 x67
 x68
 x69
 x70
 x71
 x72
 x73
 x74
 x75
 x76
 x77
 x78
 x79
 x80
 x81
 x82
 x83
 x84
 x85
 x86
 x87
 x88
 x89
 x90
 x91
 x92
 x93
 x94
 x95
 x96
 x97
 x98
 x99
 x100
 x101
 x102
 x103
 x104
 x105
 x106
 x107
 x108
 x109
 x110
 x111
 x112
 x113
 x114
 x115
 x116
 x117
 x118
 x119
 x120
 x121
 x122
 x123
 x124
 x125
 x126
 x127
 x128
 x129
 x130
 x131
 x132
 x133
 x134
 x135
 x136
 x137
 x138
 x139
 x140
 x141
 x142
 x143
 x144
 x145
 x146
 x147
 x148
 x149
 x150
 x151
 x152
 x153
 x154
 x155
 x156
 x157
 x158
 x159
 x160
 x161
 x162
 x163
 x164
 x165
 x166
 x167
 x168
 x169
 x170
 x171
 x172
 x173
 x174
 x175
 x176
 x177
 x178
 x179
 x180
 x181
 x182
 x183
 x184
 x185
 x186
 x187
 x188
 x189
 x190
 x191
 x192
 x193
 x194
 x195
 x196
 x197
 x198
 x199
 x200
 x201
 x202
 x203
 x204
 x205
 x206
 x207
 x208
 x209
 x210
 x211
 x212
 x213
 x214
 x215
 x216
 x217
 x218
 x219
 x220
 x221
 x222
 x223
 x224
 x225
 x226
 x227
 x228
 x229
 x230
 x231
 x232
 x233
 x234
 x235
 x236
 x237
 x238
 x239
 x240
 x241
 x242
 x243
 x244
 x245
 x246
 x247
 x248
 x249
 x250
 x251
 x252
 x253
 x254
 x255
 x256
 x257
 x258
 x259
 x260
 x261
 x262
 x263
 x264
 x265
 x266
 x267
 x268
 x269
 x270
 x271
 x272
 x273
 x274
 x275
 x276
 x277
 x278
 x279
 x280
 x281
 x282
 x283
 x284
 x285
 x286
 x287
 x288
 x289
 x290
 x291
 x292
 x293
 x294
 x295
 x296
 x297
 x298
 x299
 x300
 x301
 x302
 x303
 x304
 x305
 x306
 x307
 x308
 x309
 x310
 x311
 x312
 x313
 x314
 x315
 x316
 x317
 x318
 x319
 x320
 x321
 x322
 x323
 x324
 x325
 x326
 x327
 x328
 x329
 x330
 x331
 x332
 x333
 x334
 x335
 x336
 x337
 x338
 x339
 x340
 x341
 x342
 x343
 x344
 x345
 x346
 x347
 x348
 x349
 x350
 x351
 x352
 x353
 x354
 x355
 x356
 x357
 x358
 x359
 x360
 x361
 x362
 x363
 x364
 x365
 x366
 x367
 x368
 x369
 x370
 x371
 x372
 x373
 x374
 x375
 x376
 x377
 x378
 x379
 x380
 x381
 x382
 x383
 x384
 x385
 x386
 x387
 x388
 x389
 x390
 x391
 x392
 x393
 x394
 x395
 x396
 x397
 x398
 x399
 x400
 x401
 x402
 x403
 x404
 x405
 x406
 x407
 x408
 x409
 x410
 x411
 x412
 x413
 x414
 x415
 x416
 x417
 x418
 x419
 x420
 x421
 x422
 x423
 x424
 x425
 x426
 x427
 x428
 x429
 x430
 x431
 x432
 x433
 x434
 x435
 x436
 x437
 x438
 x439
 x440
 x441
 x442
 x443
 x444
 x445
 x446
 x447
 x448
 x449
 x450
 x451
 x452
 x453
 x454
 x455
 x456
 x457
 x458
 x459
 x460
 x461
 x462
 x463
 x464
 x465
 x466
 x467
 x468
 x469
 x470
 x471
 x472
 x473
 x474
 x475
 x476
 x477
 x478
 x479
 x480
 x481
 x482
 x483
 x484
 x485
 x486
 x487
 x488
 x489
 x490
 x491
 x492
 x493
 x494
 x495
 x496
 x497
 x498
 x499
 x500
 x501
 x502
 x503
 x504
 x505
 x506
 x507
 x508
 x509
 x510
 x511
End
