\ Boolean forbidden-tuple encoding
Minimize
 obj: 0
Subject To
 c0_neq0_1: x0 + x1 >= 1
 c1_neq0_1: - x0 - x1 >= -1
 c2_neq0_2: x0 + x2 >= 1
 c3_neq0_2: - x0 - x2 >= -1
 c4_neq1_3: x1 + x3 >= 1
 c5_neq1_3: - x1 - x3 >= -1
 c6_neq1_4: x1 + x4 >= 1
 c7_neq1_4: - x1 - x4 >= -1
 c8_neq2_5: x2 + x5 >= 1
 c9_neq2_5: - x2 - x5 >= -1
 c10_neq2_6: x2 + x6 >= 1
 c11_neq2_6: - x2 - x6 >= -1
 c12_neq3_7: x3 + x7 >= 1
 c13_neq3_7: - x3 - x7 >= -1
 c14_neq3_8: x3 + x8 >= 1
 c15_neq3_8: - x3 - x8 >= -1
 c16_neq4_9: x4 + x9 >= 1
 c17_neq4_9: - x4 - x9 >= -1
 c18_neq4_10: x4 + x10 >= 1
 c19_neq4_10: - x4 - x10 >= -1
 c20_neq5_11: x5 + x11 >= 1
 c21_neq5_11: - x5 - x11 >= -1
 c22_neq5_12: x5 + x12 >= 1
 c23_neq5_12: - x5 - x12 >= -1
 c24_neq6_13: x6 + x13 >= 1
 c25_neq6_13: - x6 - x13 >= -1
 c26_neq6_14: x6 + x14 >= 1
 c27_neq6_14: - x6 - x14 >= -1
 c28_neq7_15: x7 + x15 >= 1
 c29_neq7_15: - x7 - x15 >= -1
 c30_neq7_16: x7 + x16 >= 1
 c31_neq7_16: - x7 - x16 >= -1
 c32_neq8_17: x8 + x17 >= 1
 c33_neq8_17: - x8 - x17 >= -1
 c34_neq8_18: x8 + x18 >= 1
 c35_neq8_18: - x8 - x18 >= -1
 c36_neq9_19: x9 + x19 >= 1
 c37_neq9_19: - x9 - x19 >= -1
 c38_neq9_20: x9 + x20 >= 1
 c39_neq9_20: - x9 - x20 >= -1
 c40_neq10_21: x10 + x21 >= 1
 c41_neq10_21: - x10 - x21 >= -1
 c42_neq10_22: x10 + x22 >= 1
 c43_neq10_22: - x10 - x22 >= -1
 c44_neq11_23: x11 + x23 >= 1
 c45_neq11_23: - x11 - x23 >= -1
 c46_neq11_24: x11 + x24 >= 1
 c47_neq11_24: - x11 - x24 >= -1
 c48_neq12_25: x12 + x25 >= 1
 c49_neq12_25: - x12 - x25 >= -1
 c50_neq12_26: x12 + x26 >= 1
 c51_neq12_26: - x12 - x26 >= -1
 c52_neq13_27: x13 + x27 >= 1
 c53_neq13_27: - x13 - x27 >= -1
 c54_neq13_28: x13 + x28 >= 1
 c55_neq13_28: - x13 - x28 >= -1
 c56_neq14_29: x14 + x29 >= 1
 c57_neq14_29: - x14 - x29 >= -1
 c58_neq14_30: x14 + x30 >= 1
 c59_neq14_30: - x14 - x30 >= -1
 c60_neq15_31: x15 + x31 >= 1
 c61_neq15_31: - x15 - x31 >= -1
 c62_neq15_32: x15 + x32 >= 1
 c63_neq15_32: - x15 - x32 >= -1
 c64_neq16_33: x16 + x33 >= 1
 c65_neq16_33: - x16 - x33 >= -1
 c66_neq16_34: x16 + x34 >= 1
 c67_neq16_34: - x16 - x34 >= -1
 c68_neq17_35: x17 + x35 >= 1
 c69_neq17_35: - x17 - x35 >= -1
 c70_neq17_36: x17 + x36 >= 1
 c71_neq17_36: - x17 - x36 >= -1
 c72_neq18_37: x18 + x37 >= 1
 c73_neq18_37: - x18 - x37 >= -1
 c74_neq18_38: x18 + x38 >= 1
 c75_neq18_38: - x18 - x38 >= -1
 c76_neq19_39: x19 + x39 >= 1
 c77_neq19_39: - x19 - x39 >= -1
 c78_neq19_40: x19 + x40 >= 1
 c79_neq19_40: - x19 - x40 >= -1
 c80_neq20_41: x20 + x41 >= 1
 c81_neq20_41: - x20 - x41 >= -1
 c82_neq20_42: x20 + x42 >= 1
 c83_neq20_42: - x20 - x42 >= -1
 c84_neq21_43: x21 + x43 >= 1
 c85_neq21_43: - x21 - x43 >= -1
 c86_neq21_44: x21 + x44 >= 1
 c87_neq21_44: - x21 - x44 >= -1
 c88_neq22_45: x22 + x45 >= 1
 c89_neq22_45: - x22 - x45 >= -1
 c90_neq22_46: x22 + x46 >= 1
 c91_neq22_46: - x22 - x46 >= -1
 c92_neq23_47: x23 + x47 >= 1
 c93_neq23_47: - x23 - x47 >= -1
 c94_neq23_48: x23 + x48 >= 1
 c95_neq23_48: - x23 - x48 >= -1
 c96_neq24_49: x24 + x49 >= 1
 c97_neq24_49: - x24 - x49 >= -1
 c98_neq24_50: x24 + x50 >= 1
 c99_neq24_50: - x24 - x50 >= -1
 c100_neq25_51: x25 + x51 >= 1
 c101_neq25_51: - x25 - x51 >= -1
 c102_neq25_52: x25 + x52 >= 1
 c103_neq25_52: - x25 - x52 >= -1
 c104_neq26_53: x26 + x53 >= 1
 c105_neq26_53: - x26 - x53 >= -1
 c106_neq26_54: x26 + x54 >= 1
 c107_neq26_54: - x26 - x54 >= -1
 c108_neq27_55: x27 + x55 >= 1
 c109_neq27_55: - x27 - x55 >= -1
 c110_neq27_56: x27 + x56 >= 1
 c111_neq27_56: - x27 - x56 >= -1
 c112_neq28_57: x28 + x57 >= 1
 c113_neq28_57: - x28 - x57 >= -1
 c114_neq28_58: x28 + x58 >= 1
 c115_neq28_58: - x28 - x58 >= -1
 c116_neq29_59: x29 + x59 >= 1
 c117_neq29_59: - x29 - x59 >= -1
 c118_neq29_60: x29 + x60 >= 1
 c119_neq29_60: - x29 - x60 >= -1
 c120_neq30_61: x30 + x61 >= 1
 c121_neq30_61: - x30 - x61 >= -1
 c122_neq30_62: x30 + x62 >= 1
 c123_neq30_62: - x30 - x62 >= -1
 c124_neq31_63: x31 + x63 >= 1
 c125_neq31_63: - x31 - x63 >= -1
 c126_neq31_64: x31 + x64 >= 1
 c127_neq31_64: - x31 - x64 >= -1
 c128_neq32_65: x32 + x65 >= 1
 c129_neq32_65: - x32 - x65 >= -1
 c130_neq32_66: x32 + x66 >= 1
 c131_neq32_66: - x32 - x66 >= -1
 c132_neq33_67: x33 + x67 >= 1
 c133_neq33_67: - x33 - x67 >= -1
 c134_neq33_68: x33 + x68 >= 1
 c135_neq33_68: - x33 - x68 >= -1
 c136_neq34_69: x34 + x69 >= 1
 c137_neq34_69: - x34 - x69 >= -1
 c138_neq34_70: x34 + x70 >= 1
 c139_neq34_70: - x34 - x70 >= -1
 c140_neq35_71: x35 + x71 >= 1
 c141_neq35_71: - x35 - x71 >= -1
 c142_neq35_72: x35 + x72 >= 1
 c143_neq35_72: - x35 - x72 >= -1
 c144_neq36_73: x36 + x73 >= 1
 c145_neq36_73: - x36 - x73 >= -1
 c146_neq36_74: x36 + x74 >= 1
 c147_neq36_74: - x36 - x74 >= -1
 c148_neq37_75: x37 + x75 >= 1
 c149_neq37_75: - x37 - x75 >= -1
 c150_neq37_76: x37 + x76 >= 1
 c151_neq37_76: - x37 - x76 >= -1
 c152_neq38_77: x38 + x77 >= 1
 c153_neq38_77: - x38 - x77 >= -1
 c154_neq38_78: x38 + x78 >= 1
 c155_neq38_78: - x38 - x78 >= -1
 c156_neq39_79: x39 + x79 >= 1
 c157_neq39_79: - x39 - x79 >= -1
 c158_neq39_80: x39 + x80 >= 1
 c159_neq39_80: - x39 - x80 >= -1
 c160_neq40_81: x40 + x81 >= 1
 c161_neq40_81: - x40 - x81 >= -1
 c162_neq40_82: x40 + x82 >= 1
 c163_neq40_82: - x40 - x82 >= -1
 c164_neq41_83: x41 + x83 >= 1
 c165_neq41_83: - x41 - x83 >= -1
 c166_neq41_84: x41 + x84 >= 1
 c167_neq41_84: - x41 - x84 >= -1
 c168_neq42_85: x42 + x85 >= 1
 c169_neq42_85: - x42 - x85 >= -1
 c170_neq42_86: x42 + x86 >= 1
 c171_neq42_86: - x42 - x86 >= -1
 c172_neq43_87: x43 + x87 >= 1
 c173_neq43_87: - x43 - x87 >= -1
 c174_neq43_88: x43 + x88 >= 1
 c175_neq43_88: - x43 - x88 >= -1
 c176_neq44_89: x44 + x89 >= 1
 c177_neq44_89: - x44 - x89 >= -1
 c178_neq44_90: x44 + x90 >= 1
 c179_neq44_90: - x44 - x90 >= -1
 c180_neq45_91: x45 + x91 >= 1
 c181_neq45_91: - x45 - x91 >= -1
 c182_neq45_92: x45 + x92 >= 1
 c183_neq45_92: - x45 - x92 >= -1
 c184_neq46_93: x46 + x93 >= 1
 c185_neq46_93: - x46 - x93 >= -1
 c186_neq46_94: x46 + x94 >= 1
 c187_neq46_94: - x46 - x94 >= -1
 c188_neq47_95: x47 + x95 >= 1
 c189_neq47_95: - x47 - x95 >= -1
 c190_neq47_96: x47 + x96 >= 1
 c191_neq47_96: - x47 - x96 >= -1
 c192_neq48_97: x48 + x97 >= 1
 c193_neq48_97: - x48 - x97 >= -1
 c194_neq48_98: x48 + x98 >= 1
 c195_neq48_98: - x48 - x98 >= -1
 c196_neq49_99: x49 + x99 >= 1
 c197_neq49_99: - x49 - x99 >= -1
 c198_neq49_100: x49 + x100 >= 1
 c199_neq49_100: - x49 - x100 >= -1
 c200_neq50_101: x50 + x101 >= 1
 c201_neq50_101: - x50 - x101 >= -1
 c202_neq50_102: x50 + x102 >= 1
 c203_neq50_102: - x50 - x102 >= -1
 c204_neq51_103: x51 + x103 >= 1
 c205_neq51_103: - x51 - x103 >= -1
 c206_neq51_104: x51 + x104 >= 1
 c207_neq51_104: - x51 - x104 >= -1
 c208_neq52_105: x52 + x105 >= 1
 c209_neq52_105: - x52 - x105 >= -1
 c210_neq52_106: x52 + x106 >= 1
 c211_neq52_106: - x52 - x106 >= -1
 c212_neq53_107: x53 + x107 >= 1
 c213_neq53_107: - x53 - x107 >= -1
 c214_neq53_108: x53 + x108 >= 1
 c215_neq53_108: - x53 - x108 >= -1
 c216_neq54_109: x54 + x109 >= 1
 c217_neq54_109: - x54 - x109 >= -1
 c218_neq54_110: x54 + x110 >= 1
 c219_neq54_110: - x54 - x110 >= -1
 c220_neq55_111: x55 + x111 >= 1
 c221_neq55_111: - x55 - x111 >= -1
 c222_neq55_112: x55 + x112 >= 1
 c223_neq55_112: - x55 - x112 >= -1
 c224_neq56_113: x56 + x113 >= 1
 c225_neq56_113: - x56 - x113 >= -1
 c226_neq56_114: x56 + x114 >= 1
 c227_neq56_114: - x56 - x114 >= -1
 c228_neq57_115: x57 + x115 >= 1
 c229_neq57_115: - x57 - x115 >= -1
 c230_neq57_116: x57 + x116 >= 1
 c231_neq57_116: - x57 - x116 >= -1
 c232_neq58_117: x58 + x117 >= 1
 c233_neq58_117: - x58 - x117 >= -1
 c234_neq58_118: x58 + x118 >= 1
 c235_neq58_118: - x58 - x118 >= -1
 c236_neq59_119: x59 + x119 >= 1
 c237_neq59_119: - x59 - x119 >= -1
 c238_neq59_120: x59 + x120 >= 1
 c239_neq59_120: - x59 - x120 >= -1
 c240_neq60_121: x60 + x121 >= 1
 c241_neq60_121: - x60 - x121 >= -1
 c242_neq60_122: x60 + x122 >= 1
 c243_neq60_122: - x60 - x122 >= -1
 c244_neq61_123: x61 + x123 >= 1
 c245_neq61_123: - x61 - x123 >= -1
 c246_neq61_124: x61 + x124 >= 1
 c247_neq61_124: - x61 - x124 >= -1
 c248_neq62_125: x62 + x125 >= 1
 c249_neq62_125: - x62 - x125 >= -1
 c250_neq62_126: x62 + x126 >= 1
 c251_neq62_126: - x62 - x126 >= -1
Binary
 x0
 x1
 x2
 x3
 x4
 x5
 x6
 x7
 x8
 x9
 x10
 x11
 x12
 x13
 x14
 x15
 x16
 x17
 x18
 x19
 x20
 x21
 x22
 x23
 x24
 x25
 x26
 x27
 x28
 x29
 x30
 x31
 x32
 x33
 x34
 x35
 x36
 x37
 x38
 x39
 x40
 x41
 x42
 x43
 x44
 x45
 x46
 x47
 x48
 x49
 x50
 x51
 x52
 x53
 x54
 x55
 x56
 x57
 x58
 x59
 x60
 x61
 x62
 x63
 x64
 x65
 x66
 x67
 x68
 x69
 x70
 x71
 x72
 x73
 x74
 x75
 x76
 x77
 x78
 x79
 x80
 x81
 x82
 x83
 x84
 x85
 x86
 x87
 x88
 x89
 x90
 x91
 x92
 x93
 x94
 x95
 x96
 x97
 x98
 x99
 x100
 x101
 x102
 x103
 x104
 x105
 x106
 x107
 x108
 x109
 x110
 x111
 x112
 x113
 x114
 x115
 x116
 x117
 x118
 x119
 x120
 x121
 x122
 x123
 x124
 x125
 x126
End
