\ Boolean forbidden-tuple encoding
Minimize
 obj: 0
Subject To
 c0_neq0_1: x0 + x1 >= 1
 c1_neq0_1: - x0 - x1 >= -1
 c2_neq0_2: x0 + x2 >= 1
 c3_neq0_2: - x0 - x2 >= -1
 c4_neq1_3: x1 + x3 >= 1
 c5_neq1_3: - x1 - x3 >= -1
 c6_neq1_4: x1 + x4 >= 1
 c7_neq1_4: - x1 - x4 >= -1
 c8_neq2_5: x2 + x5 >= 1
 c9_neq2_5: - x2 - x5 >= -1
 c10_neq2_6: x2 + x6 >= 1
 c11_neq2_6: - x2 - x6 >= -1
 c12_neq3_7: x3 + x7 >= 1
 c13_neq3_7: - x3 - x7 >= -1
 c14_neq3_8: x3 + x8 >= 1
 c15_neq3_8: - x3 - x8 >= -1
 c16_neq4_9: x4 + x9 >= 1
 c17_neq4_9: - x4 - x9 >= -1
 c18_neq4_10: x4 + x10 >= 1
 c19_neq4_10: - x4 - x10 >= -1
 c20_neq5_11: x5 + x11 >= 1
 c21_neq5_11: - x5 - x11 >= -1
 c22_neq5_12: x5 + x12 >= 1
 c23_neq5_12: - x5 - x12 >= -1
 c24_neq6_13: x6 + x13 >= 1
 c25_neq6_13: - x6 - x13 >= -1
 c26_neq6_14: x6 + x14 >= 1
 c27_neq6_14: - x6 - x14 >= -1
 c28_neq7_15: x7 + x15 >= 1
 c29_neq7_15: - x7 - x15 >= -1
 c30_neq7_16: x7 + x16 >= 1
 c31_neq7_16: - x7 - x16 >= -1
 c32_neq8_17: x8 + x17 >= 1
 c33_neq8_17: - x8 - x17 >= -1
 c34_neq8_18: x8 + x18 >= 1
 c35_neq8_18: - x8 - x18 >= -1
 c36_neq9_19: x9 + x19 >= 1
 c37_neq9_19: - x9 - x19 >= -1
 c38_neq9_20: x9 + x20 >= 1
 c39_neq9_20: - x9 - x20 >= -1
 c40_neq10_21: x10 + x21 >= 1
 c41_neq10_21: - x10 - x21 >= -1
 c42_neq10_22: x10 + x22 >= 1
 c43_neq10_22: - x10 - x22 >= -1
 c44_neq11_23: x11 + x23 >= 1
 c45_neq11_23: - x11 - x23 >= -1
 c46_neq11_24: x11 + x24 >= 1
 c47_neq11_24: - x11 - x24 >= -1
 c48_neq12_25: x12 + x25 >= 1
 c49_neq12_25: - x12 - x25 >= -1
 c50_neq12_26: x12 + x26 >= 1
 c51_neq12_26: - x12 - x26 >= -1
 c52_neq13_27: x13 + x27 >= 1
 c53_neq13_27: - x13 - x27 >= -1
 c54_neq13_28: x13 + x28 >= 1
 c55_neq13_28: - x13 - x28 >= -1
 c56_neq14_29: x14 + x29 >= 1
 c57_neq14_29: - x14 - x29 >= -1
 c58_neq14_30: x14 + x30 >= 1
 c59_neq14_30: - x14 - x30 >= -1
Binary
 x0
 x1
 x2
 x3
 x4
 x5
 x6
 x7
 x8
 x9
 x10
 x11
 x12
 x13
 x14
 x15
 x16
 x17
 x18
 x19
 x20
 x21
 x22
 x23
 x24
 x25
 x26
 x27
 x28
 x29
 x30
End
