c var 1 x0
c var 2 x1
c var 3 x2
c var 4 x3
c var 5 x4
c var 6 x5
c var 7 x6
c var 8 x7
c var 9 x8
c var 10 x9
c var 11 x10
c var 12 x11
c var 13 x12
c var 14 x13
c var 15 x14
c var 16 x15
c var 17 x16
c var 18 x17
c var 19 x18
c var 20 x19
c var 21 x20
c var 22 x21
c var 23 x22
c var 24 x23
c var 25 x24
c var 26 x25
c var 27 x26
c var 28 x27
c var 29 x28
c var 30 x29
c var 31 x30
c var 32 x31
c forbid window0 {'x0': 0, 'x1': 0, 'x2': 0}
c forbid window0 {'x0': 1, 'x1': 1, 'x2': 1}
c forbid window1 {'x1': 0, 'x2': 0, 'x3': 0}
c forbid window1 {'x1': 1, 'x2': 1, 'x3': 1}
c forbid window2 {'x2': 0, 'x3': 0, 'x4': 0}
c forbid window2 {'x2': 1, 'x3': 1, 'x4': 1}
c forbid window3 {'x3': 0, 'x4': 0, 'x5': 0}
c forbid window3 {'x3': 1, 'x4': 1, 'x5': 1}
c forbid window4 {'x4': 0, 'x5': 0, 'x6': 0}
c forbid window4 {'x4': 1, 'x5': 1, 'x6': 1}
c forbid window5 {'x5': 0, 'x6': 0, 'x7': 0}
c forbid window5 {'x5': 1, 'x6': 1, 'x7': 1}
c forbid window6 {'x6': 0, 'x7': 0, 'x8': 0}
c forbid window6 {'x6': 1, 'x7': 1, 'x8': 1}
c forbid window7 {'x7': 0, 'x8': 0, 'x9': 0}
c forbid window7 {'x7': 1, 'x8': 1, 'x9': 1}
c forbid window8 {'x8': 0, 'x9': 0, 'x10': 0}
c forbid window8 {'x8': 1, 'x9': 1, 'x10': 1}
c forbid window9 {'x9': 0, 'x10': 0, 'x11': 0}
c forbid window9 {'x9': 1, 'x10': 1, 'x11': 1}
c forbid window10 {'x10': 0, 'x11': 0, 'x12': 0}
c forbid window10 {'x10': 1, 'x11': 1, 'x12': 1}
c forbid window11 {'x11': 0, 'x12': 0, 'x13': 0}
c forbid window11 {'x11': 1, 'x12': 1, 'x13': 1}
c forbid window12 {'x12': 0, 'x13': 0, 'x14': 0}
c forbid window12 {'x12': 1, 'x13': 1, 'x14': 1}
c forbid window13 {'x13': 0, 'x14': 0, 'x15': 0}
c forbid window13 {'x13': 1, 'x14': 1, 'x15': 1}
c forbid window14 {'x14': 0, 'x15': 0, 'x16': 0}
c forbid window14 {'x14': 1, 'x15': 1, 'x16': 1}
c forbid window15 {'x15': 0, 'x16': 0, 'x17': 0}
c forbid window15 {'x15': 1, 'x16': 1, 'x17': 1}
c forbid window16 {'x16': 0, 'x17': 0, 'x18': 0}
c forbid window16 {'x16': 1, 'x17': 1, 'x18': 1}
c forbid window17 {'x17': 0, 'x18': 0, 'x19': 0}
c forbid window17 {'x17': 1, 'x18': 1, 'x19': 1}
c forbid window18 {'x18': 0, 'x19': 0, 'x20': 0}
c forbid window18 {'x18': 1, 'x19': 1, 'x20': 1}
c forbid window19 {'x19': 0, 'x20': 0, 'x21': 0}
c forbid window19 {'x19': 1, 'x20': 1, 'x21': 1}
c forbid window20 {'x20': 0, 'x21': 0, 'x22': 0}
c forbid window20 {'x20': 1, 'x21': 1, 'x22': 1}
c forbid window21 {'x21': 0, 'x22': 0, 'x23': 0}
c forbid window21 {'x21': 1, 'x22': 1, 'x23': 1}
c forbid window22 {'x22': 0, 'x23': 0, 'x24': 0}
c forbid window22 {'x22': 1, 'x23': 1, 'x24': 1}
c forbid window23 {'x23': 0, 'x24': 0, 'x25': 0}
c forbid window23 {'x23': 1, 'x24': 1, 'x25': 1}
c forbid window24 {'x24': 0, 'x25': 0, 'x26': 0}
c forbid window24 {'x24': 1, 'x25': 1, 'x26': 1}
c forbid window25 {'x25': 0, 'x26': 0, 'x27': 0}
c forbid window25 {'x25': 1, 'x26': 1, 'x27': 1}
c forbid window26 {'x26': 0, 'x27': 0, 'x28': 0}
c forbid window26 {'x26': 1, 'x27': 1, 'x28': 1}
c forbid window27 {'x27': 0, 'x28': 0, 'x29': 0}
c forbid window27 {'x27': 1, 'x28': 1, 'x29': 1}
c forbid window28 {'x28': 0, 'x29': 0, 'x30': 0}
c forbid window28 {'x28': 1, 'x29': 1, 'x30': 1}
c forbid window29 {'x29': 0, 'x30': 0, 'x31': 0}
c forbid window29 {'x29': 1, 'x30': 1, 'x31': 1}
p cnf 32 60
1 2 3 0
-1 -2 -3 0
2 3 4 0
-2 -3 -4 0
3 4 5 0
-3 -4 -5 0
4 5 6 0
-4 -5 -6 0
5 6 7 0
-5 -6 -7 0
6 7 8 0
-6 -7 -8 0
7 8 9 0
-7 -8 -9 0
8 9 10 0
-8 -9 -10 0
9 10 11 0
-9 -10 -11 0
10 11 12 0
-10 -11 -12 0
11 12 13 0
-11 -12 -13 0
12 13 14 0
-12 -13 -14 0
13 14 15 0
-13 -14 -15 0
14 15 16 0
-14 -15 -16 0
15 16 17 0
-15 -16 -17 0
16 17 18 0
-16 -17 -18 0
17 18 19 0
-17 -18 -19 0
18 19 20 0
-18 -19 -20 0
19 20 21 0
-19 -20 -21 0
20 21 22 0
-20 -21 -22 0
21 22 23 0
-21 -22 -23 0
22 23 24 0
-22 -23 -24 0
23 24 25 0
-23 -24 -25 0
24 25 26 0
-24 -25 -26 0
25 26 27 0
-25 -26 -27 0
26 27 28 0
-26 -27 -28 0
27 28 29 0
-27 -28 -29 0
28 29 30 0
-28 -29 -30 0
29 30 31 0
-29 -30 -31 0
30 31 32 0
-30 -31 -32 0
