\ Boolean forbidden-tuple encoding
Minimize
 obj: 0
Subject To
 c0_neq0_1: x0 + x1 >= 1
 c1_neq0_1: - x0 - x1 >= -1
 c2_neq0_2: x0 + x2 >= 1
 c3_neq0_2: - x0 - x2 >= -1
 c4_neq1_3: x1 + x3 >= 1
 c5_neq1_3: - x1 - x3 >= -1
 c6_neq1_4: x1 + x4 >= 1
 c7_neq1_4: - x1 - x4 >= -1
 c8_neq2_5: x2 + x5 >= 1
 c9_neq2_5: - x2 - x5 >= -1
 c10_neq2_6: x2 + x6 >= 1
 c11_neq2_6: - x2 - x6 >= -1
 c12_neq3_7: x3 + x7 >= 1
 c13_neq3_7: - x3 - x7 >= -1
 c14_neq3_8: x3 + x8 >= 1
 c15_neq3_8: - x3 - x8 >= -1
 c16_neq4_9: x4 + x9 >= 1
 c17_neq4_9: - x4 - x9 >= -1
 c18_neq4_10: x4 + x10 >= 1
 c19_neq4_10: - x4 - x10 >= -1
 c20_neq5_11: x5 + x11 >= 1
 c21_neq5_11: - x5 - x11 >= -1
 c22_neq5_12: x5 + x12 >= 1
 c23_neq5_12: - x5 - x12 >= -1
 c24_neq6_13: x6 + x13 >= 1
 c25_neq6_13: - x6 - x13 >= -1
 c26_neq6_14: x6 + x14 >= 1
 c27_neq6_14: - x6 - x14 >= -1
 c28_neq7_15: x7 + x15 >= 1
 c29_neq7_15: - x7 - x15 >= -1
 c30_neq7_16: x7 + x16 >= 1
 c31_neq7_16: - x7 - x16 >= -1
 c32_neq8_17: x8 + x17 >= 1
 c33_neq8_17: - x8 - x17 >= -1
 c34_neq8_18: x8 + x18 >= 1
 c35_neq8_18: - x8 - x18 >= -1
 c36_neq9_19: x9 + x19 >= 1
 c37_neq9_19: - x9 - x19 >= -1
 c38_neq9_20: x9 + x20 >= 1
 c39_neq9_20: - x9 - x20 >= -1
 c40_neq10_21: x10 + x21 >= 1
 c41_neq10_21: - x10 - x21 >= -1
 c42_neq10_22: x10 + x22 >= 1
 c43_neq10_22: - x10 - x22 >= -1
 c44_neq11_23: x11 + x23 >= 1
 c45_neq11_23: - x11 - x23 >= -1
 c46_neq11_24: x11 + x24 >= 1
 c47_neq11_24: - x11 - x24 >= -1
 c48_neq12_25: x12 + x25 >= 1
 c49_neq12_25: - x12 - x25 >= -1
 c50_neq12_26: x12 + x26 >= 1
 c51_neq12_26: - x12 - x26 >= -1
 c52_neq13_27: x13 + x27 >= 1
 c53_neq13_27: - x13 - x27 >= -1
 c54_neq13_28: x13 + x28 >= 1
 c55_neq13_28: - x13 - x28 >= -1
 c56_neq14_29: x14 + x29 >= 1
 c57_neq14_29: - x14 - x29 >= -1
 c58_neq14_30: x14 + x30 >= 1
 c59_neq14_30: - x14 - x30 >= -1
 c60_neq15_31: x15 + x31 >= 1
 c61_neq15_31: - x15 - x31 >= -1
 c62_neq15_32: x15 + x32 >= 1
 c63_neq15_32: - x15 - x32 >= -1
 c64_neq16_33: x16 + x33 >= 1
 c65_neq16_33: - x16 - x33 >= -1
 c66_neq16_34: x16 + x34 >= 1
 c67_neq16_34: - x16 - x34 >= -1
 c68_neq17_35: x17 + x35 >= 1
 c69_neq17_35: - x17 - x35 >= -1
 c70_neq17_36: x17 + x36 >= 1
 c71_neq17_36: - x17 - x36 >= -1
 c72_neq18_37: x18 + x37 >= 1
 c73_neq18_37: - x18 - x37 >= -1
 c74_neq18_38: x18 + x38 >= 1
 c75_neq18_38: - x18 - x38 >= -1
 c76_neq19_39: x19 + x39 >= 1
 c77_neq19_39: - x19 - x39 >= -1
 c78_neq19_40: x19 + x40 >= 1
 c79_neq19_40: - x19 - x40 >= -1
 c80_neq20_41: x20 + x41 >= 1
 c81_neq20_41: - x20 - x41 >= -1
 c82_neq20_42: x20 + x42 >= 1
 c83_neq20_42: - x20 - x42 >= -1
 c84_neq21_43: x21 + x43 >= 1
 c85_neq21_43: - x21 - x43 >= -1
 c86_neq21_44: x21 + x44 >= 1
 c87_neq21_44: - x21 - x44 >= -1
 c88_neq22_45: x22 + x45 >= 1
 c89_neq22_45: - x22 - x45 >= -1
 c90_neq22_46: x22 + x46 >= 1
 c91_neq22_46: - x22 - x46 >= -1
 c92_neq23_47: x23 + x47 >= 1
 c93_neq23_47: - x23 - x47 >= -1
 c94_neq23_48: x23 + x48 >= 1
 c95_neq23_48: - x23 - x48 >= -1
 c96_neq24_49: x24 + x49 >= 1
 c97_neq24_49: - x24 - x49 >= -1
 c98_neq24_50: x24 + x50 >= 1
 c99_neq24_50: - x24 - x50 >= -1
 c100_neq25_51: x25 + x51 >= 1
 c101_neq25_51: - x25 - x51 >= -1
 c102_neq25_52: x25 + x52 >= 1
 c103_neq25_52: - x25 - x52 >= -1
 c104_neq26_53: x26 + x53 >= 1
 c105_neq26_53: - x26 - x53 >= -1
 c106_neq26_54: x26 + x54 >= 1
 c107_neq26_54: - x26 - x54 >= -1
 c108_neq27_55: x27 + x55 >= 1
 c109_neq27_55: - x27 - x55 >= -1
 c110_neq27_56: x27 + x56 >= 1
 c111_neq27_56: - x27 - x56 >= -1
 c112_neq28_57: x28 + x57 >= 1
 c113_neq28_57: - x28 - x57 >= -1
 c114_neq28_58: x28 + x58 >= 1
 c115_neq28_58: - x28 - x58 >= -1
 c116_neq29_59: x29 + x59 >= 1
 c117_neq29_59: - x29 - x59 >= -1
 c118_neq29_60: x29 + x60 >= 1
 c119_neq29_60: - x29 - x60 >= -1
 c120_neq30_61: x30 + x61 >= 1
 c121_neq30_61: - x30 - x61 >= -1
 c122_neq30_62: x30 + x62 >= 1
 c123_neq30_62: - x30 - x62 >= -1
 c124_neq31_63: x31 + x63 >= 1
 c125_neq31_63: - x31 - x63 >= -1
 c126_neq31_64: x31 + x64 >= 1
 c127_neq31_64: - x31 - x64 >= -1
 c128_neq32_65: x32 + x65 >= 1
 c129_neq32_65: - x32 - x65 >= -1
 c130_neq32_66: x32 + x66 >= 1
 c131_neq32_66: - x32 - x66 >= -1
 c132_neq33_67: x33 + x67 >= 1
 c133_neq33_67: - x33 - x67 >= -1
 c134_neq33_68: x33 + x68 >= 1
 c135_neq33_68: - x33 - x68 >= -1
 c136_neq34_69: x34 + x69 >= 1
 c137_neq34_69: - x34 - x69 >= -1
 c138_neq34_70: x34 + x70 >= 1
 c139_neq34_70: - x34 - x70 >= -1
 c140_neq35_71: x35 + x71 >= 1
 c141_neq35_71: - x35 - x71 >= -1
 c142_neq35_72: x35 + x72 >= 1
 c143_neq35_72: - x35 - x72 >= -1
 c144_neq36_73: x36 + x73 >= 1
 c145_neq36_73: - x36 - x73 >= -1
 c146_neq36_74: x36 + x74 >= 1
 c147_neq36_74: - x36 - x74 >= -1
 c148_neq37_75: x37 + x75 >= 1
 c149_neq37_75: - x37 - x75 >= -1
 c150_neq37_76: x37 + x76 >= 1
 c151_neq37_76: - x37 - x76 >= -1
 c152_neq38_77: x38 + x77 >= 1
 c153_neq38_77: - x38 - x77 >= -1
 c154_neq38_78: x38 + x78 >= 1
 c155_neq38_78: - x38 - x78 >= -1
 c156_neq39_79: x39 + x79 >= 1
 c157_neq39_79: - x39 - x79 >= -1
 c158_neq39_80: x39 + x80 >= 1
 c159_neq39_80: - x39 - x80 >= -1
 c160_neq40_81: x40 + x81 >= 1
 c161_neq40_81: - x40 - x81 >= -1
 c162_neq40_82: x40 + x82 >= 1
 c163_neq40_82: - x40 - x82 >= -1
 c164_neq41_83: x41 + x83 >= 1
 c165_neq41_83: - x41 - x83 >= -1
 c166_neq41_84: x41 + x84 >= 1
 c167_neq41_84: - x41 - x84 >= -1
 c168_neq42_85: x42 + x85 >= 1
 c169_neq42_85: - x42 - x85 >= -1
 c170_neq42_86: x42 + x86 >= 1
 c171_neq42_86: - x42 - x86 >= -1
 c172_neq43_87: x43 + x87 >= 1
 c173_neq43_87: - x43 - x87 >= -1
 c174_neq43_88: x43 + x88 >= 1
 c175_neq43_88: - x43 - x88 >= -1
 c176_neq44_89: x44 + x89 >= 1
 c177_neq44_89: - x44 - x89 >= -1
 c178_neq44_90: x44 + x90 >= 1
 c179_neq44_90: - x44 - x90 >= -1
 c180_neq45_91: x45 + x91 >= 1
 c181_neq45_91: - x45 - x91 >= -1
 c182_neq45_92: x45 + x92 >= 1
 c183_neq45_92: - x45 - x92 >= -1
 c184_neq46_93: x46 + x93 >= 1
 c185_neq46_93: - x46 - x93 >= -1
 c186_neq46_94: x46 + x94 >= 1
 c187_neq46_94: - x46 - x94 >= -1
 c188_neq47_95: x47 + x95 >= 1
 c189_neq47_95: - x47 - x95 >= -1
 c190_neq47_96: x47 + x96 >= 1
 c191_neq47_96: - x47 - x96 >= -1
 c192_neq48_97: x48 + x97 >= 1
 c193_neq48_97: - x48 - x97 >= -1
 c194_neq48_98: x48 + x98 >= 1
 c195_neq48_98: - x48 - x98 >= -1
 c196_neq49_99: x49 + x99 >= 1
 c197_neq49_99: - x49 - x99 >= -1
 c198_neq49_100: x49 + x100 >= 1
 c199_neq49_100: - x49 - x100 >= -1
 c200_neq50_101: x50 + x101 >= 1
 c201_neq50_101: - x50 - x101 >= -1
 c202_neq50_102: x50 + x102 >= 1
 c203_neq50_102: - x50 - x102 >= -1
 c204_neq51_103: x51 + x103 >= 1
 c205_neq51_103: - x51 - x103 >= -1
 c206_neq51_104: x51 + x104 >= 1
 c207_neq51_104: - x51 - x104 >= -1
 c208_neq52_105: x52 + x105 >= 1
 c209_neq52_105: - x52 - x105 >= -1
 c210_neq52_106: x52 + x106 >= 1
 c211_neq52_106: - x52 - x106 >= -1
 c212_neq53_107: x53 + x107 >= 1
 c213_neq53_107: - x53 - x107 >= -1
 c214_neq53_108: x53 + x108 >= 1
 c215_neq53_108: - x53 - x108 >= -1
 c216_neq54_109: x54 + x109 >= 1
 c217_neq54_109: - x54 - x109 >= -1
 c218_neq54_110: x54 + x110 >= 1
 c219_neq54_110: - x54 - x110 >= -1
 c220_neq55_111: x55 + x111 >= 1
 c221_neq55_111: - x55 - x111 >= -1
 c222_neq55_112: x55 + x112 >= 1
 c223_neq55_112: - x55 - x112 >= -1
 c224_neq56_113: x56 + x113 >= 1
 c225_neq56_113: - x56 - x113 >= -1
 c226_neq56_114: x56 + x114 >= 1
 c227_neq56_114: - x56 - x114 >= -1
 c228_neq57_115: x57 + x115 >= 1
 c229_neq57_115: - x57 - x115 >= -1
 c230_neq57_116: x57 + x116 >= 1
 c231_neq57_116: - x57 - x116 >= -1
 c232_neq58_117: x58 + x117 >= 1
 c233_neq58_117: - x58 - x117 >= -1
 c234_neq58_118: x58 + x118 >= 1
 c235_neq58_118: - x58 - x118 >= -1
 c236_neq59_119: x59 + x119 >= 1
 c237_neq59_119: - x59 - x119 >= -1
 c238_neq59_120: x59 + x120 >= 1
 c239_neq59_120: - x59 - x120 >= -1
 c240_neq60_121: x60 + x121 >= 1
 c241_neq60_121: - x60 - x121 >= -1
 c242_neq60_122: x60 + x122 >= 1
 c243_neq60_122: - x60 - x122 >= -1
 c244_neq61_123: x61 + x123 >= 1
 c245_neq61_123: - x61 - x123 >= -1
 c246_neq61_124: x61 + x124 >= 1
 c247_neq61_124: - x61 - x124 >= -1
 c248_neq62_125: x62 + x125 >= 1
 c249_neq62_125: - x62 - x125 >= -1
 c250_neq62_126: x62 + x126 >= 1
 c251_neq62_126: - x62 - x126 >= -1
 c252_neq63_127: x63 + x127 >= 1
 c253_neq63_127: - x63 - x127 >= -1
 c254_neq63_128: x63 + x128 >= 1
 c255_neq63_128: - x63 - x128 >= -1
 c256_neq64_129: x64 + x129 >= 1
 c257_neq64_129: - x64 - x129 >= -1
 c258_neq64_130: x64 + x130 >= 1
 c259_neq64_130: - x64 - x130 >= -1
 c260_neq65_131: x65 + x131 >= 1
 c261_neq65_131: - x65 - x131 >= -1
 c262_neq65_132: x65 + x132 >= 1
 c263_neq65_132: - x65 - x132 >= -1
 c264_neq66_133: x66 + x133 >= 1
 c265_neq66_133: - x66 - x133 >= -1
 c266_neq66_134: x66 + x134 >= 1
 c267_neq66_134: - x66 - x134 >= -1
 c268_neq67_135: x67 + x135 >= 1
 c269_neq67_135: - x67 - x135 >= -1
 c270_neq67_136: x67 + x136 >= 1
 c271_neq67_136: - x67 - x136 >= -1
 c272_neq68_137: x68 + x137 >= 1
 c273_neq68_137: - x68 - x137 >= -1
 c274_neq68_138: x68 + x138 >= 1
 c275_neq68_138: - x68 - x138 >= -1
 c276_neq69_139: x69 + x139 >= 1
 c277_neq69_139: - x69 - x139 >= -1
 c278_neq69_140: x69 + x140 >= 1
 c279_neq69_140: - x69 - x140 >= -1
 c280_neq70_141: x70 + x141 >= 1
 c281_neq70_141: - x70 - x141 >= -1
 c282_neq70_142: x70 + x142 >= 1
 c283_neq70_142: - x70 - x142 >= -1
 c284_neq71_143: x71 + x143 >= 1
 c285_neq71_143: - x71 - x143 >= -1
 c286_neq71_144: x71 + x144 >= 1
 c287_neq71_144: - x71 - x144 >= -1
 c288_neq72_145: x72 + x145 >= 1
 c289_neq72_145: - x72 - x145 >= -1
 c290_neq72_146: x72 + x146 >= 1
 c291_neq72_146: - x72 - x146 >= -1
 c292_neq73_147: x73 + x147 >= 1
 c293_neq73_147: - x73 - x147 >= -1
 c294_neq73_148: x73 + x148 >= 1
 c295_neq73_148: - x73 - x148 >= -1
 c296_neq74_149: x74 + x149 >= 1
 c297_neq74_149: - x74 - x149 >= -1
 c298_neq74_150: x74 + x150 >= 1
 c299_neq74_150: - x74 - x150 >= -1
 c300_neq75_151: x75 + x151 >= 1
 c301_neq75_151: - x75 - x151 >= -1
 c302_neq75_152: x75 + x152 >= 1
 c303_neq75_152: - x75 - x152 >= -1
 c304_neq76_153: x76 + x153 >= 1
 c305_neq76_153: - x76 - x153 >= -1
 c306_neq76_154: x76 + x154 >= 1
 c307_neq76_154: - x76 - x154 >= -1
 c308_neq77_155: x77 + x155 >= 1
 c309_neq77_155: - x77 - x155 >= -1
 c310_neq77_156: x77 + x156 >= 1
 c311_neq77_156: - x77 - x156 >= -1
 c312_neq78_157: x78 + x157 >= 1
 c313_neq78_157: - x78 - x157 >= -1
 c314_neq78_158: x78 + x158 >= 1
 c315_neq78_158: - x78 - x158 >= -1
 c316_neq79_159: x79 + x159 >= 1
 c317_neq79_159: - x79 - x159 >= -1
 c318_neq79_160: x79 + x160 >= 1
 c319_neq79_160: - x79 - x160 >= -1
 c320_neq80_161: x80 + x161 >= 1
 c321_neq80_161: - x80 - x161 >= -1
 c322_neq80_162: x80 + x162 >= 1
 c323_neq80_162: - x80 - x162 >= -1
 c324_neq81_163: x81 + x163 >= 1
 c325_neq81_163: - x81 - x163 >= -1
 c326_neq81_164: x81 + x164 >= 1
 c327_neq81_164: - x81 - x164 >= -1
 c328_neq82_165: x82 + x165 >= 1
 c329_neq82_165: - x82 - x165 >= -1
 c330_neq82_166: x82 + x166 >= 1
 c331_neq82_166: - x82 - x166 >= -1
 c332_neq83_167: x83 + x167 >= 1
 c333_neq83_167: - x83 - x167 >= -1
 c334_neq83_168: x83 + x168 >= 1
 c335_neq83_168: - x83 - x168 >= -1
 c336_neq84_169: x84 + x169 >= 1
 c337_neq84_169: - x84 - x169 >= -1
 c338_neq84_170: x84 + x170 >= 1
 c339_neq84_170: - x84 - x170 >= -1
 c340_neq85_171: x85 + x171 >= 1
 c341_neq85_171: - x85 - x171 >= -1
 c342_neq85_172: x85 + x172 >= 1
 c343_neq85_172: - x85 - x172 >= -1
 c344_neq86_173: x86 + x173 >= 1
 c345_neq86_173: - x86 - x173 >= -1
 c346_neq86_174: x86 + x174 >= 1
 c347_neq86_174: - x86 - x174 >= -1
 c348_neq87_175: x87 + x175 >= 1
 c349_neq87_175: - x87 - x175 >= -1
 c350_neq87_176: x87 + x176 >= 1
 c351_neq87_176: - x87 - x176 >= -1
 c352_neq88_177: x88 + x177 >= 1
 c353_neq88_177: - x88 - x177 >= -1
 c354_neq88_178: x88 + x178 >= 1
 c355_neq88_178: - x88 - x178 >= -1
 c356_neq89_179: x89 + x179 >= 1
 c357_neq89_179: - x89 - x179 >= -1
 c358_neq89_180: x89 + x180 >= 1
 c359_neq89_180: - x89 - x180 >= -1
 c360_neq90_181: x90 + x181 >= 1
 c361_neq90_181: - x90 - x181 >= -1
 c362_neq90_182: x90 + x182 >= 1
 c363_neq90_182: - x90 - x182 >= -1
 c364_neq91_183: x91 + x183 >= 1
 c365_neq91_183: - x91 - x183 >= -1
 c366_neq91_184: x91 + x184 >= 1
 c367_neq91_184: - x91 - x184 >= -1
 c368_neq92_185: x92 + x185 >= 1
 c369_neq92_185: - x92 - x185 >= -1
 c370_neq92_186: x92 + x186 >= 1
 c371_neq92_186: - x92 - x186 >= -1
 c372_neq93_187: x93 + x187 >= 1
 c373_neq93_187: - x93 - x187 >= -1
 c374_neq93_188: x93 + x188 >= 1
 c375_neq93_188: - x93 - x188 >= -1
 c376_neq94_189: x94 + x189 >= 1
 c377_neq94_189: - x94 - x189 >= -1
 c378_neq94_190: x94 + x190 >= 1
 c379_neq94_190: - x94 - x190 >= -1
 c380_neq95_191: x95 + x191 >= 1
 c381_neq95_191: - x95 - x191 >= -1
 c382_neq95_192: x95 + x192 >= 1
 c383_neq95_192: - x95 - x192 >= -1
 c384_neq96_193: x96 + x193 >= 1
 c385_neq96_193: - x96 - x193 >= -1
 c386_neq96_194: x96 + x194 >= 1
 c387_neq96_194: - x96 - x194 >= -1
 c388_neq97_195: x97 + x195 >= 1
 c389_neq97_195: - x97 - x195 >= -1
 c390_neq97_196: x97 + x196 >= 1
 c391_neq97_196: - x97 - x196 >= -1
 c392_neq98_197: x98 + x197 >= 1
 c393_neq98_197: - x98 - x197 >= -1
 c394_neq98_198: x98 + x198 >= 1
 c395_neq98_198: - x98 - x198 >= -1
 c396_neq99_199: x99 + x199 >= 1
 c397_neq99_199: - x99 - x199 >= -1
 c398_neq99_200: x99 + x200 >= 1
 c399_neq99_200: - x99 - x200 >= -1
 c400_neq100_201: x100 + x201 >= 1
 c401_neq100_201: - x100 - x201 >= -1
 c402_neq100_202: x100 + x202 >= 1
 c403_neq100_202: - x100 - x202 >= -1
 c404_neq101_203: x101 + x203 >= 1
 c405_neq101_203: - x101 - x203 >= -1
 c406_neq101_204: x101 + x204 >= 1
 c407_neq101_204: - x101 - x204 >= -1
 c408_neq102_205: x102 + x205 >= 1
 c409_neq102_205: - x102 - x205 >= -1
 c410_neq102_206: x102 + x206 >= 1
 c411_neq102_206: - x102 - x206 >= -1
 c412_neq103_207: x103 + x207 >= 1
 c413_neq103_207: - x103 - x207 >= -1
 c414_neq103_208: x103 + x208 >= 1
 c415_neq103_208: - x103 - x208 >= -1
 c416_neq104_209: x104 + x209 >= 1
 c417_neq104_209: - x104 - x209 >= -1
 c418_neq104_210: x104 + x210 >= 1
 c419_neq104_210: - x104 - x210 >= -1
 c420_neq105_211: x105 + x211 >= 1
 c421_neq105_211: - x105 - x211 >= -1
 c422_neq105_212: x105 + x212 >= 1
 c423_neq105_212: - x105 - x212 >= -1
 c424_neq106_213: x106 + x213 >= 1
 c425_neq106_213: - x106 - x213 >= -1
 c426_neq106_214: x106 + x214 >= 1
 c427_neq106_214: - x106 - x214 >= -1
 c428_neq107_215: x107 + x215 >= 1
 c429_neq107_215: - x107 - x215 >= -1
 c430_neq107_216: x107 + x216 >= 1
 c431_neq107_216: - x107 - x216 >= -1
 c432_neq108_217: x108 + x217 >= 1
 c433_neq108_217: - x108 - x217 >= -1
 c434_neq108_218: x108 + x218 >= 1
 c435_neq108_218: - x108 - x218 >= -1
 c436_neq109_219: x109 + x219 >= 1
 c437_neq109_219: - x109 - x219 >= -1
 c438_neq109_220: x109 + x220 >= 1
 c439_neq109_220: - x109 - x220 >= -1
 c440_neq110_221: x110 + x221 >= 1
 c441_neq110_221: - x110 - x221 >= -1
 c442_neq110_222: x110 + x222 >= 1
 c443_neq110_222: - x110 - x222 >= -1
 c444_neq111_223: x111 + x223 >= 1
 c445_neq111_223: - x111 - x223 >= -1
 c446_neq111_224: x111 + x224 >= 1
 c447_neq111_224: - x111 - x224 >= -1
 c448_neq112_225: x112 + x225 >= 1
 c449_neq112_225: - x112 - x225 >= -1
 c450_neq112_226: x112 + x226 >= 1
 c451_neq112_226: - x112 - x226 >= -1
 c452_neq113_227: x113 + x227 >= 1
 c453_neq113_227: - x113 - x227 >= -1
 c454_neq113_228: x113 + x228 >= 1
 c455_neq113_228: - x113 - x228 >= -1
 c456_neq114_229: x114 + x229 >= 1
 c457_neq114_229: - x114 - x229 >= -1
 c458_neq114_230: x114 + x230 >= 1
 c459_neq114_230: - x114 - x230 >= -1
 c460_neq115_231: x115 + x231 >= 1
 c461_neq115_231: - x115 - x231 >= -1
 c462_neq115_232: x115 + x232 >= 1
 c463_neq115_232: - x115 - x232 >= -1
 c464_neq116_233: x116 + x233 >= 1
 c465_neq116_233: - x116 - x233 >= -1
 c466_neq116_234: x116 + x234 >= 1
 c467_neq116_234: - x116 - x234 >= -1
 c468_neq117_235: x117 + x235 >= 1
 c469_neq117_235: - x117 - x235 >= -1
 c470_neq117_236: x117 + x236 >= 1
 c471_neq117_236: - x117 - x236 >= -1
 c472_neq118_237: x118 + x237 >= 1
 c473_neq118_237: - x118 - x237 >= -1
 c474_neq118_238: x118 + x238 >= 1
 c475_neq118_238: - x118 - x238 >= -1
 c476_neq119_239: x119 + x239 >= 1
 c477_neq119_239: - x119 - x239 >= -1
 c478_neq119_240: x119 + x240 >= 1
 c479_neq119_240: - x119 - x240 >= -1
 c480_neq120_241: x120 + x241 >= 1
 c481_neq120_241: - x120 - x241 >= -1
 c482_neq120_242: x120 + x242 >= 1
 c483_neq120_242: - x120 - x242 >= -1
 c484_neq121_243: x121 + x243 >= 1
 c485_neq121_243: - x121 - x243 >= -1
 c486_neq121_244: x121 + x244 >= 1
 c487_neq121_244: - x121 - x244 >= -1
 c488_neq122_245: x122 + x245 >= 1
 c489_neq122_245: - x122 - x245 >= -1
 c490_neq122_246: x122 + x246 >= 1
 c491_neq122_246: - x122 - x246 >= -1
 c492_neq123_247: x123 + x247 >= 1
 c493_neq123_247: - x123 - x247 >= -1
 c494_neq123_248: x123 + x248 >= 1
 c495_neq123_248: - x123 - x248 >= -1
 c496_neq124_249: x124 + x249 >= 1
 c497_neq124_249: - x124 - x249 >= -1
 c498_neq124_250: x124 + x250 >= 1
 c499_neq124_250: - x124 - x250 >= -1
 c500_neq125_251: x125 + x251 >= 1
 c501_neq125_251: - x125 - x251 >= -1
 c502_neq125_252: x125 + x252 >= 1
 c503_neq125_252: - x125 - x252 >= -1
 c504_neq126_253: x126 + x253 >= 1
 c505_neq126_253: - x126 - x253 >= -1
 c506_neq126_254: x126 + x254 >= 1
 c507_neq126_254: - x126 - x254 >= -1
 c508_neq127_255: x127 + x255 >= 1
 c509_neq127_255: - x127 - x255 >= -1
 c510_neq127_256: x127 + x256 >= 1
 c511_neq127_256: - x127 - x256 >= -1
 c512_neq128_257: x128 + x257 >= 1
 c513_neq128_257: - x128 - x257 >= -1
 c514_neq128_258: x128 + x258 >= 1
 c515_neq128_258: - x128 - x258 >= -1
 c516_neq129_259: x129 + x259 >= 1
 c517_neq129_259: - x129 - x259 >= -1
 c518_neq129_260: x129 + x260 >= 1
 c519_neq129_260: - x129 - x260 >= -1
 c520_neq130_261: x130 + x261 >= 1
 c521_neq130_261: - x130 - x261 >= -1
 c522_neq130_262: x130 + x262 >= 1
 c523_neq130_262: - x130 - x262 >= -1
 c524_neq131_263: x131 + x263 >= 1
 c525_neq131_263: - x131 - x263 >= -1
 c526_neq131_264: x131 + x264 >= 1
 c527_neq131_264: - x131 - x264 >= -1
 c528_neq132_265: x132 + x265 >= 1
 c529_neq132_265: - x132 - x265 >= -1
 c530_neq132_266: x132 + x266 >= 1
 c531_neq132_266: - x132 - x266 >= -1
 c532_neq133_267: x133 + x267 >= 1
 c533_neq133_267: - x133 - x267 >= -1
 c534_neq133_268: x133 + x268 >= 1
 c535_neq133_268: - x133 - x268 >= -1
 c536_neq134_269: x134 + x269 >= 1
 c537_neq134_269: - x134 - x269 >= -1
 c538_neq134_270: x134 + x270 >= 1
 c539_neq134_270: - x134 - x270 >= -1
 c540_neq135_271: x135 + x271 >= 1
 c541_neq135_271: - x135 - x271 >= -1
 c542_neq135_272: x135 + x272 >= 1
 c543_neq135_272: - x135 - x272 >= -1
 c544_neq136_273: x136 + x273 >= 1
 c545_neq136_273: - x136 - x273 >= -1
 c546_neq136_274: x136 + x274 >= 1
 c547_neq136_274: - x136 - x274 >= -1
 c548_neq137_275: x137 + x275 >= 1
 c549_neq137_275: - x137 - x275 >= -1
 c550_neq137_276: x137 + x276 >= 1
 c551_neq137_276: - x137 - x276 >= -1
 c552_neq138_277: x138 + x277 >= 1
 c553_neq138_277: - x138 - x277 >= -1
 c554_neq138_278: x138 + x278 >= 1
 c555_neq138_278: - x138 - x278 >= -1
 c556_neq139_279: x139 + x279 >= 1
 c557_neq139_279: - x139 - x279 >= -1
 c558_neq139_280: x139 + x280 >= 1
 c559_neq139_280: - x139 - x280 >= -1
 c560_neq140_281: x140 + x281 >= 1
 c561_neq140_281: - x140 - x281 >= -1
 c562_neq140_282: x140 + x282 >= 1
 c563_neq140_282: - x140 - x282 >= -1
 c564_neq141_283: x141 + x283 >= 1
 c565_neq141_283: - x141 - x283 >= -1
 c566_neq141_284: x141 + x284 >= 1
 c567_neq141_284: - x141 - x284 >= -1
 c568_neq142_285: x142 + x285 >= 1
 c569_neq142_285: - x142 - x285 >= -1
 c570_neq142_286: x142 + x286 >= 1
 c571_neq142_286: - x142 - x286 >= -1
 c572_neq143_287: x143 + x287 >= 1
 c573_neq143_287: - x143 - x287 >= -1
 c574_neq143_288: x143 + x288 >= 1
 c575_neq143_288: - x143 - x288 >= -1
 c576_neq144_289: x144 + x289 >= 1
 c577_neq144_289: - x144 - x289 >= -1
 c578_neq144_290: x144 + x290 >= 1
 c579_neq144_290: - x144 - x290 >= -1
 c580_neq145_291: x145 + x291 >= 1
 c581_neq145_291: - x145 - x291 >= -1
 c582_neq145_292: x145 + x292 >= 1
 c583_neq145_292: - x145 - x292 >= -1
 c584_neq146_293: x146 + x293 >= 1
 c585_neq146_293: - x146 - x293 >= -1
 c586_neq146_294: x146 + x294 >= 1
 c587_neq146_294: - x146 - x294 >= -1
 c588_neq147_295: x147 + x295 >= 1
 c589_neq147_295: - x147 - x295 >= -1
 c590_neq147_296: x147 + x296 >= 1
 c591_neq147_296: - x147 - x296 >= -1
 c592_neq148_297: x148 + x297 >= 1
 c593_neq148_297: - x148 - x297 >= -1
 c594_neq148_298: x148 + x298 >= 1
 c595_neq148_298: - x148 - x298 >= -1
 c596_neq149_299: x149 + x299 >= 1
 c597_neq149_299: - x149 - x299 >= -1
 c598_neq149_300: x149 + x300 >= 1
 c599_neq149_300: - x149 - x300 >= -1
 c600_neq150_301: x150 + x301 >= 1
 c601_neq150_301: - x150 - x301 >= -1
 c602_neq150_302: x150 + x302 >= 1
 c603_neq150_302: - x150 - x302 >= -1
 c604_neq151_303: x151 + x303 >= 1
 c605_neq151_303: - x151 - x303 >= -1
 c606_neq151_304: x151 + x304 >= 1
 c607_neq151_304: - x151 - x304 >= -1
 c608_neq152_305: x152 + x305 >= 1
 c609_neq152_305: - x152 - x305 >= -1
 c610_neq152_306: x152 + x306 >= 1
 c611_neq152_306: - x152 - x306 >= -1
 c612_neq153_307: x153 + x307 >= 1
 c613_neq153_307: - x153 - x307 >= -1
 c614_neq153_308: x153 + x308 >= 1
 c615_neq153_308: - x153 - x308 >= -1
 c616_neq154_309: x154 + x309 >= 1
 c617_neq154_309: - x154 - x309 >= -1
 c618_neq154_310: x154 + x310 >= 1
 c619_neq154_310: - x154 - x310 >= -1
 c620_neq155_311: x155 + x311 >= 1
 c621_neq155_311: - x155 - x311 >= -1
 c622_neq155_312: x155 + x312 >= 1
 c623_neq155_312: - x155 - x312 >= -1
 c624_neq156_313: x156 + x313 >= 1
 c625_neq156_313: - x156 - x313 >= -1
 c626_neq156_314: x156 + x314 >= 1
 c627_neq156_314: - x156 - x314 >= -1
 c628_neq157_315: x157 + x315 >= 1
 c629_neq157_315: - x157 - x315 >= -1
 c630_neq157_316: x157 + x316 >= 1
 c631_neq157_316: - x157 - x316 >= -1
 c632_neq158_317: x158 + x317 >= 1
 c633_neq158_317: - x158 - x317 >= -1
 c634_neq158_318: x158 + x318 >= 1
 c635_neq158_318: - x158 - x318 >= -1
 c636_neq159_319: x159 + x319 >= 1
 c637_neq159_319: - x159 - x319 >= -1
 c638_neq159_320: x159 + x320 >= 1
 c639_neq159_320: - x159 - x320 >= -1
 c640_neq160_321: x160 + x321 >= 1
 c641_neq160_321: - x160 - x321 >= -1
 c642_neq160_322: x160 + x322 >= 1
 c643_neq160_322: - x160 - x322 >= -1
 c644_neq161_323: x161 + x323 >= 1
 c645_neq161_323: - x161 - x323 >= -1
 c646_neq161_324: x161 + x324 >= 1
 c647_neq161_324: - x161 - x324 >= -1
 c648_neq162_325: x162 + x325 >= 1
 c649_neq162_325: - x162 - x325 >= -1
 c650_neq162_326: x162 + x326 >= 1
 c651_neq162_326: - x162 - x326 >= -1
 c652_neq163_327: x163 + x327 >= 1
 c653_neq163_327: - x163 - x327 >= -1
 c654_neq163_328: x163 + x328 >= 1
 c655_neq163_328: - x163 - x328 >= -1
 c656_neq164_329: x164 + x329 >= 1
 c657_neq164_329: - x164 - x329 >= -1
 c658_neq164_330: x164 + x330 >= 1
 c659_neq164_330: - x164 - x330 >= -1
 c660_neq165_331: x165 + x331 >= 1
 c661_neq165_331: - x165 - x331 >= -1
 c662_neq165_332: x165 + x332 >= 1
 c663_neq165_332: - x165 - x332 >= -1
 c664_neq166_333: x166 + x333 >= 1
 c665_neq166_333: - x166 - x333 >= -1
 c666_neq166_334: x166 + x334 >= 1
 c667_neq166_334: - x166 - x334 >= -1
 c668_neq167_335: x167 + x335 >= 1
 c669_neq167_335: - x167 - x335 >= -1
 c670_neq167_336: x167 + x336 >= 1
 c671_neq167_336: - x167 - x336 >= -1
 c672_neq168_337: x168 + x337 >= 1
 c673_neq168_337: - x168 - x337 >= -1
 c674_neq168_338: x168 + x338 >= 1
 c675_neq168_338: - x168 - x338 >= -1
 c676_neq169_339: x169 + x339 >= 1
 c677_neq169_339: - x169 - x339 >= -1
 c678_neq169_340: x169 + x340 >= 1
 c679_neq169_340: - x169 - x340 >= -1
 c680_neq170_341: x170 + x341 >= 1
 c681_neq170_341: - x170 - x341 >= -1
 c682_neq170_342: x170 + x342 >= 1
 c683_neq170_342: - x170 - x342 >= -1
 c684_neq171_343: x171 + x343 >= 1
 c685_neq171_343: - x171 - x343 >= -1
 c686_neq171_344: x171 + x344 >= 1
 c687_neq171_344: - x171 - x344 >= -1
 c688_neq172_345: x172 + x345 >= 1
 c689_neq172_345: - x172 - x345 >= -1
 c690_neq172_346: x172 + x346 >= 1
 c691_neq172_346: - x172 - x346 >= -1
 c692_neq173_347: x173 + x347 >= 1
 c693_neq173_347: - x173 - x347 >= -1
 c694_neq173_348: x173 + x348 >= 1
 c695_neq173_348: - x173 - x348 >= -1
 c696_neq174_349: x174 + x349 >= 1
 c697_neq174_349: - x174 - x349 >= -1
 c698_neq174_350: x174 + x350 >= 1
 c699_neq174_350: - x174 - x350 >= -1
 c700_neq175_351: x175 + x351 >= 1
 c701_neq175_351: - x175 - x351 >= -1
 c702_neq175_352: x175 + x352 >= 1
 c703_neq175_352: - x175 - x352 >= -1
 c704_neq176_353: x176 + x353 >= 1
 c705_neq176_353: - x176 - x353 >= -1
 c706_neq176_354: x176 + x354 >= 1
 c707_neq176_354: - x176 - x354 >= -1
 c708_neq177_355: x177 + x355 >= 1
 c709_neq177_355: - x177 - x355 >= -1
 c710_neq177_356: x177 + x356 >= 1
 c711_neq177_356: - x177 - x356 >= -1
 c712_neq178_357: x178 + x357 >= 1
 c713_neq178_357: - x178 - x357 >= -1
 c714_neq178_358: x178 + x358 >= 1
 c715_neq178_358: - x178 - x358 >= -1
 c716_neq179_359: x179 + x359 >= 1
 c717_neq179_359: - x179 - x359 >= -1
 c718_neq179_360: x179 + x360 >= 1
 c719_neq179_360: - x179 - x360 >= -1
 c720_neq180_361: x180 + x361 >= 1
 c721_neq180_361: - x180 - x361 >= -1
 c722_neq180_362: x180 + x362 >= 1
 c723_neq180_362: - x180 - x362 >= -1
 c724_neq181_363: x181 + x363 >= 1
 c725_neq181_363: - x181 - x363 >= -1
 c726_neq181_364: x181 + x364 >= 1
 c727_neq181_364: - x181 - x364 >= -1
 c728_neq182_365: x182 + x365 >= 1
 c729_neq182_365: - x182 - x365 >= -1
 c730_neq182_366: x182 + x366 >= 1
 c731_neq182_366: - x182 - x366 >= -1
 c732_neq183_367: x183 + x367 >= 1
 c733_neq183_367: - x183 - x367 >= -1
 c734_neq183_368: x183 + x368 >= 1
 c735_neq183_368: - x183 - x368 >= -1
 c736_neq184_369: x184 + x369 >= 1
 c737_neq184_369: - x184 - x369 >= -1
 c738_neq184_370: x184 + x370 >= 1
 c739_neq184_370: - x184 - x370 >= -1
 c740_neq185_371: x185 + x371 >= 1
 c741_neq185_371: - x185 - x371 >= -1
 c742_neq185_372: x185 + x372 >= 1
 c743_neq185_372: - x185 - x372 >= -1
 c744_neq186_373: x186 + x373 >= 1
 c745_neq186_373: - x186 - x373 >= -1
 c746_neq186_374: x186 + x374 >= 1
 c747_neq186_374: - x186 - x374 >= -1
 c748_neq187_375: x187 + x375 >= 1
 c749_neq187_375: - x187 - x375 >= -1
 c750_neq187_376: x187 + x376 >= 1
 c751_neq187_376: - x187 - x376 >= -1
 c752_neq188_377: x188 + x377 >= 1
 c753_neq188_377: - x188 - x377 >= -1
 c754_neq188_378: x188 + x378 >= 1
 c755_neq188_378: - x188 - x378 >= -1
 c756_neq189_379: x189 + x379 >= 1
 c757_neq189_379: - x189 - x379 >= -1
 c758_neq189_380: x189 + x380 >= 1
 c759_neq189_380: - x189 - x380 >= -1
 c760_neq190_381: x190 + x381 >= 1
 c761_neq190_381: - x190 - x381 >= -1
 c762_neq190_382: x190 + x382 >= 1
 c763_neq190_382: - x190 - x382 >= -1
 c764_neq191_383: x191 + x383 >= 1
 c765_neq191_383: - x191 - x383 >= -1
 c766_neq191_384: x191 + x384 >= 1
 c767_neq191_384: - x191 - x384 >= -1
 c768_neq192_385: x192 + x385 >= 1
 c769_neq192_385: - x192 - x385 >= -1
 c770_neq192_386: x192 + x386 >= 1
 c771_neq192_386: - x192 - x386 >= -1
 c772_neq193_387: x193 + x387 >= 1
 c773_neq193_387: - x193 - x387 >= -1
 c774_neq193_388: x193 + x388 >= 1
 c775_neq193_388: - x193 - x388 >= -1
 c776_neq194_389: x194 + x389 >= 1
 c777_neq194_389: - x194 - x389 >= -1
 c778_neq194_390: x194 + x390 >= 1
 c779_neq194_390: - x194 - x390 >= -1
 c780_neq195_391: x195 + x391 >= 1
 c781_neq195_391: - x195 - x391 >= -1
 c782_neq195_392: x195 + x392 >= 1
 c783_neq195_392: - x195 - x392 >= -1
 c784_neq196_393: x196 + x393 >= 1
 c785_neq196_393: - x196 - x393 >= -1
 c786_neq196_394: x196 + x394 >= 1
 c787_neq196_394: - x196 - x394 >= -1
 c788_neq197_395: x197 + x395 >= 1
 c789_neq197_395: - x197 - x395 >= -1
 c790_neq197_396: x197 + x396 >= 1
 c791_neq197_396: - x197 - x396 >= -1
 c792_neq198_397: x198 + x397 >= 1
 c793_neq198_397: - x198 - x397 >= -1
 c794_neq198_398: x198 + x398 >= 1
 c795_neq198_398: - x198 - x398 >= -1
 c796_neq199_399: x199 + x399 >= 1
 c797_neq199_399: - x199 - x399 >= -1
 c798_neq199_400: x199 + x400 >= 1
 c799_neq199_400: - x199 - x400 >= -1
 c800_neq200_401: x200 + x401 >= 1
 c801_neq200_401: - x200 - x401 >= -1
 c802_neq200_402: x200 + x402 >= 1
 c803_neq200_402: - x200 - x402 >= -1
 c804_neq201_403: x201 + x403 >= 1
 c805_neq201_403: - x201 - x403 >= -1
 c806_neq201_404: x201 + x404 >= 1
 c807_neq201_404: - x201 - x404 >= -1
 c808_neq202_405: x202 + x405 >= 1
 c809_neq202_405: - x202 - x405 >= -1
 c810_neq202_406: x202 + x406 >= 1
 c811_neq202_406: - x202 - x406 >= -1
 c812_neq203_407: x203 + x407 >= 1
 c813_neq203_407: - x203 - x407 >= -1
 c814_neq203_408: x203 + x408 >= 1
 c815_neq203_408: - x203 - x408 >= -1
 c816_neq204_409: x204 + x409 >= 1
 c817_neq204_409: - x204 - x409 >= -1
 c818_neq204_410: x204 + x410 >= 1
 c819_neq204_410: - x204 - x410 >= -1
 c820_neq205_411: x205 + x411 >= 1
 c821_neq205_411: - x205 - x411 >= -1
 c822_neq205_412: x205 + x412 >= 1
 c823_neq205_412: - x205 - x412 >= -1
 c824_neq206_413: x206 + x413 >= 1
 c825_neq206_413: - x206 - x413 >= -1
 c826_neq206_414: x206 + x414 >= 1
 c827_neq206_414: - x206 - x414 >= -1
 c828_neq207_415: x207 + x415 >= 1
 c829_neq207_415: - x207 - x415 >= -1
 c830_neq207_416: x207 + x416 >= 1
 c831_neq207_416: - x207 - x416 >= -1
 c832_neq208_417: x208 + x417 >= 1
 c833_neq208_417: - x208 - x417 >= -1
 c834_neq208_418: x208 + x418 >= 1
 c835_neq208_418: - x208 - x418 >= -1
 c836_neq209_419: x209 + x419 >= 1
 c837_neq209_419: - x209 - x419 >= -1
 c838_neq209_420: x209 + x420 >= 1
 c839_neq209_420: - x209 - x420 >= -1
 c840_neq210_421: x210 + x421 >= 1
 c841_neq210_421: - x210 - x421 >= -1
 c842_neq210_422: x210 + x422 >= 1
 c843_neq210_422: - x210 - x422 >= -1
 c844_neq211_423: x211 + x423 >= 1
 c845_neq211_423: - x211 - x423 >= -1
 c846_neq211_424: x211 + x424 >= 1
 c847_neq211_424: - x211 - x424 >= -1
 c848_neq212_425: x212 + x425 >= 1
 c849_neq212_425: - x212 - x425 >= -1
 c850_neq212_426: x212 + x426 >= 1
 c851_neq212_426: - x212 - x426 >= -1
 c852_neq213_427: x213 + x427 >= 1
 c853_neq213_427: - x213 - x427 >= -1
 c854_neq213_428: x213 + x428 >= 1
 c855_neq213_428: - x213 - x428 >= -1
 c856_neq214_429: x214 + x429 >= 1
 c857_neq214_429: - x214 - x429 >= -1
 c858_neq214_430: x214 + x430 >= 1
 c859_neq214_430: - x214 - x430 >= -1
 c860_neq215_431: x215 + x431 >= 1
 c861_neq215_431: - x215 - x431 >= -1
 c862_neq215_432: x215 + x432 >= 1
 c863_neq215_432: - x215 - x432 >= -1
 c864_neq216_433: x216 + x433 >= 1
 c865_neq216_433: - x216 - x433 >= -1
 c866_neq216_434: x216 + x434 >= 1
 c867_neq216_434: - x216 - x434 >= -1
 c868_neq217_435: x217 + x435 >= 1
 c869_neq217_435: - x217 - x435 >= -1
 c870_neq217_436: x217 + x436 >= 1
 c871_neq217_436: - x217 - x436 >= -1
 c872_neq218_437: x218 + x437 >= 1
 c873_neq218_437: - x218 - x437 >= -1
 c874_neq218_438: x218 + x438 >= 1
 c875_neq218_438: - x218 - x438 >= -1
 c876_neq219_439: x219 + x439 >= 1
 c877_neq219_439: - x219 - x439 >= -1
 c878_neq219_440: x219 + x440 >= 1
 c879_neq219_440: - x219 - x440 >= -1
 c880_neq220_441: x220 + x441 >= 1
 c881_neq220_441: - x220 - x441 >= -1
 c882_neq220_442: x220 + x442 >= 1
 c883_neq220_442: - x220 - x442 >= -1
 c884_neq221_443: x221 + x443 >= 1
 c885_neq221_443: - x221 - x443 >= -1
 c886_neq221_444: x221 + x444 >= 1
 c887_neq221_444: - x221 - x444 >= -1
 c888_neq222_445: x222 + x445 >= 1
 c889_neq222_445: - x222 - x445 >= -1
 c890_neq222_446: x222 + x446 >= 1
 c891_neq222_446: - x222 - x446 >= -1
 c892_neq223_447: x223 + x447 >= 1
 c893_neq223_447: - x223 - x447 >= -1
 c894_neq223_448: x223 + x448 >= 1
 c895_neq223_448: - x223 - x448 >= -1
 c896_neq224_449: x224 + x449 >= 1
 c897_neq224_449: - x224 - x449 >= -1
 c898_neq224_450: x224 + x450 >= 1
 c899_neq224_450: - x224 - x450 >= -1
 c900_neq225_451: x225 + x451 >= 1
 c901_neq225_451: - x225 - x451 >= -1
 c902_neq225_452: x225 + x452 >= 1
 c903_neq225_452: - x225 - x452 >= -1
 c904_neq226_453: x226 + x453 >= 1
 c905_neq226_453: - x226 - x453 >= -1
 c906_neq226_454: x226 + x454 >= 1
 c907_neq226_454: - x226 - x454 >= -1
 c908_neq227_455: x227 + x455 >= 1
 c909_neq227_455: - x227 - x455 >= -1
 c910_neq227_456: x227 + x456 >= 1
 c911_neq227_456: - x227 - x456 >= -1
 c912_neq228_457: x228 + x457 >= 1
 c913_neq228_457: - x228 - x457 >= -1
 c914_neq228_458: x228 + x458 >= 1
 c915_neq228_458: - x228 - x458 >= -1
 c916_neq229_459: x229 + x459 >= 1
 c917_neq229_459: - x229 - x459 >= -1
 c918_neq229_460: x229 + x460 >= 1
 c919_neq229_460: - x229 - x460 >= -1
 c920_neq230_461: x230 + x461 >= 1
 c921_neq230_461: - x230 - x461 >= -1
 c922_neq230_462: x230 + x462 >= 1
 c923_neq230_462: - x230 - x462 >= -1
 c924_neq231_463: x231 + x463 >= 1
 c925_neq231_463: - x231 - x463 >= -1
 c926_neq231_464: x231 + x464 >= 1
 c927_neq231_464: - x231 - x464 >= -1
 c928_neq232_465: x232 + x465 >= 1
 c929_neq232_465: - x232 - x465 >= -1
 c930_neq232_466: x232 + x466 >= 1
 c931_neq232_466: - x232 - x466 >= -1
 c932_neq233_467: x233 + x467 >= 1
 c933_neq233_467: - x233 - x467 >= -1
 c934_neq233_468: x233 + x468 >= 1
 c935_neq233_468: - x233 - x468 >= -1
 c936_neq234_469: x234 + x469 >= 1
 c937_neq234_469: - x234 - x469 >= -1
 c938_neq234_470: x234 + x470 >= 1
 c939_neq234_470: - x234 - x470 >= -1
 c940_neq235_471: x235 + x471 >= 1
 c941_neq235_471: - x235 - x471 >= -1
 c942_neq235_472: x235 + x472 >= 1
 c943_neq235_472: - x235 - x472 >= -1
 c944_neq236_473: x236 + x473 >= 1
 c945_neq236_473: - x236 - x473 >= -1
 c946_neq236_474: x236 + x474 >= 1
 c947_neq236_474: - x236 - x474 >= -1
 c948_neq237_475: x237 + x475 >= 1
 c949_neq237_475: - x237 - x475 >= -1
 c950_neq237_476: x237 + x476 >= 1
 c951_neq237_476: - x237 - x476 >= -1
 c952_neq238_477: x238 + x477 >= 1
 c953_neq238_477: - x238 - x477 >= -1
 c954_neq238_478: x238 + x478 >= 1
 c955_neq238_478: - x238 - x478 >= -1
 c956_neq239_479: x239 + x479 >= 1
 c957_neq239_479: - x239 - x479 >= -1
 c958_neq239_480: x239 + x480 >= 1
 c959_neq239_480: - x239 - x480 >= -1
 c960_neq240_481: x240 + x481 >= 1
 c961_neq240_481: - x240 - x481 >= -1
 c962_neq240_482: x240 + x482 >= 1
 c963_neq240_482: - x240 - x482 >= -1
 c964_neq241_483: x241 + x483 >= 1
 c965_neq241_483: - x241 - x483 >= -1
 c966_neq241_484: x241 + x484 >= 1
 c967_neq241_484: - x241 - x484 >= -1
 c968_neq242_485: x242 + x485 >= 1
 c969_neq242_485: - x242 - x485 >= -1
 c970_neq242_486: x242 + x486 >= 1
 c971_neq242_486: - x242 - x486 >= -1
 c972_neq243_487: x243 + x487 >= 1
 c973_neq243_487: - x243 - x487 >= -1
 c974_neq243_488: x243 + x488 >= 1
 c975_neq243_488: - x243 - x488 >= -1
 c976_neq244_489: x244 + x489 >= 1
 c977_neq244_489: - x244 - x489 >= -1
 c978_neq244_490: x244 + x490 >= 1
 c979_neq244_490: - x244 - x490 >= -1
 c980_neq245_491: x245 + x491 >= 1
 c981_neq245_491: - x245 - x491 >= -1
 c982_neq245_492: x245 + x492 >= 1
 c983_neq245_492: - x245 - x492 >= -1
 c984_neq246_493: x246 + x493 >= 1
 c985_neq246_493: - x246 - x493 >= -1
 c986_neq246_494: x246 + x494 >= 1
 c987_neq246_494: - x246 - x494 >= -1
 c988_neq247_495: x247 + x495 >= 1
 c989_neq247_495: - x247 - x495 >= -1
 c990_neq247_496: x247 + x496 >= 1
 c991_neq247_496: - x247 - x496 >= -1
 c992_neq248_497: x248 + x497 >= 1
 c993_neq248_497: - x248 - x497 >= -1
 c994_neq248_498: x248 + x498 >= 1
 c995_neq248_498: - x248 - x498 >= -1
 c996_neq249_499: x249 + x499 >= 1
 c997_neq249_499: - x249 - x499 >= -1
 c998_neq249_500: x249 + x500 >= 1
 c999_neq249_500: - x249 - x500 >= -1
 c1000_neq250_501: x250 + x501 >= 1
 c1001_neq250_501: - x250 - x501 >= -1
 c1002_neq250_502: x250 + x502 >= 1
 c1003_neq250_502: - x250 - x502 >= -1
 c1004_neq251_503: x251 + x503 >= 1
 c1005_neq251_503: - x251 - x503 >= -1
 c1006_neq251_504: x251 + x504 >= 1
 c1007_neq251_504: - x251 - x504 >= -1
 c1008_neq252_505: x252 + x505 >= 1
 c1009_neq252_505: - x252 - x505 >= -1
 c1010_neq252_506: x252 + x506 >= 1
 c1011_neq252_506: - x252 - x506 >= -1
 c1012_neq253_507: x253 + x507 >= 1
 c1013_neq253_507: - x253 - x507 >= -1
 c1014_neq253_508: x253 + x508 >= 1
 c1015_neq253_508: - x253 - x508 >= -1
 c1016_neq254_509: x254 + x509 >= 1
 c1017_neq254_509: - x254 - x509 >= -1
 c1018_neq254_510: x254 + x510 >= 1
 c1019_neq254_510: - x254 - x510 >= -1
Binary
 x0
 x1
 x2
 x3
 x4
 x5
 x6
 x7
 x8
 x9
 x10
 x11
 x12
 x13
 x14
 x15
 x16
 x17
 x18
 x19
 x20
 x21
 x22
 x23
 x24
 x25
 x26
 x27
 x28
 x29
 x30
 x31
 x32
 x33
 x34
 x35
 x36
 x37
 x38
 x39
 x40
 x41
 x42
 x43
 x44
 x45
 x46
 x47
 x48
 x49
 x50
 x51
 x52
 x53
 x54
 x55
 x56
 x57
 x58
 x59
 x60
 x61
 x62
 x63
 x64
 x65
 x66
 x67
 x68
 x69
 x70
 x71
 x72
 x73
 x74
 x75
 x76
 x77
 x78
 x79
 x80
 x81
 x82
 x83
 x84
 x85
 x86
 x87
 x88
 x89
 x90
 x91
 x92
 x93
 x94
 x95
 x96
 x97
 x98
 x99
 x100
 x101
 x102
 x103
 x104
 x105
 x106
 x107
 x108
 x109
 x110
 x111
 x112
 x113
 x114
 x115
 x116
 x117
 x118
 x119
 x120
 x121
 x122
 x123
 x124
 x125
 x126
 x127
 x128
 x129
 x130
 x131
 x132
 x133
 x134
 x135
 x136
 x137
 x138
 x139
 x140
 x141
 x142
 x143
 x144
 x145
 x146
 x147
 x148
 x149
 x150
 x151
 x152
 x153
 x154
 x155
 x156
 x157
 x158
 x159
 x160
 x161
 x162
 x163
 x164
 x165
 x166
 x167
 x168
 x169
 x170
 x171
 x172
 x173
 x174
 x175
 x176
 x177
 x178
 x179
 x180
 x181
 x182
 x183
 x184
 x185
 x186
 x187
 x188
 x189
 x190
 x191
 x192
 x193
 x194
 x195
 x196
 x197
 x198
 x199
 x200
 x201
 x202
 x203
 x204
 x205
 x206
 x207
 x208
 x209
 x210
 x211
 x212
 x213
 x214
 x215
 x216
 x217
 x218
 x219
 x220
 x221
 x222
 x223
 x224
 x225
 x226
 x227
 x228
 x229
 x230
 x231
 x232
 x233
 x234
 x235
 x236
 x237
 x238
 x239
 x240
 x241
 x242
 x243
 x244
 x245
 x246
 x247
 x248
 x249
 x250
 x251
 x252
 x253
 x254
 x255
 x256
 x257
 x258
 x259
 x260
 x261
 x262
 x263
 x264
 x265
 x266
 x267
 x268
 x269
 x270
 x271
 x272
 x273
 x274
 x275
 x276
 x277
 x278
 x279
 x280
 x281
 x282
 x283
 x284
 x285
 x286
 x287
 x288
 x289
 x290
 x291
 x292
 x293
 x294
 x295
 x296
 x297
 x298
 x299
 x300
 x301
 x302
 x303
 x304
 x305
 x306
 x307
 x308
 x309
 x310
 x311
 x312
 x313
 x314
 x315
 x316
 x317
 x318
 x319
 x320
 x321
 x322
 x323
 x324
 x325
 x326
 x327
 x328
 x329
 x330
 x331
 x332
 x333
 x334
 x335
 x336
 x337
 x338
 x339
 x340
 x341
 x342
 x343
 x344
 x345
 x346
 x347
 x348
 x349
 x350
 x351
 x352
 x353
 x354
 x355
 x356
 x357
 x358
 x359
 x360
 x361
 x362
 x363
 x364
 x365
 x366
 x367
 x368
 x369
 x370
 x371
 x372
 x373
 x374
 x375
 x376
 x377
 x378
 x379
 x380
 x381
 x382
 x383
 x384
 x385
 x386
 x387
 x388
 x389
 x390
 x391
 x392
 x393
 x394
 x395
 x396
 x397
 x398
 x399
 x400
 x401
 x402
 x403
 x404
 x405
 x406
 x407
 x408
 x409
 x410
 x411
 x412
 x413
 x414
 x415
 x416
 x417
 x418
 x419
 x420
 x421
 x422
 x423
 x424
 x425
 x426
 x427
 x428
 x429
 x430
 x431
 x432
 x433
 x434
 x435
 x436
 x437
 x438
 x439
 x440
 x441
 x442
 x443
 x444
 x445
 x446
 x447
 x448
 x449
 x450
 x451
 x452
 x453
 x454
 x455
 x456
 x457
 x458
 x459
 x460
 x461
 x462
 x463
 x464
 x465
 x466
 x467
 x468
 x469
 x470
 x471
 x472
 x473
 x474
 x475
 x476
 x477
 x478
 x479
 x480
 x481
 x482
 x483
 x484
 x485
 x486
 x487
 x488
 x489
 x490
 x491
 x492
 x493
 x494
 x495
 x496
 x497
 x498
 x499
 x500
 x501
 x502
 x503
 x504
 x505
 x506
 x507
 x508
 x509
 x510
End
