\ Boolean forbidden-tuple encoding
Minimize
 obj: 0
Subject To
 c0_window0: x0 + x1 + x2 >= 1
 c1_window0: - x0 - x1 - x2 >= -2
 c2_window1: x1 + x2 + x3 >= 1
 c3_window1: - x1 - x2 - x3 >= -2
 c4_window2: x2 + x3 + x4 >= 1
 c5_window2: - x2 - x3 - x4 >= -2
 c6_window3: x3 + x4 + x5 >= 1
 c7_window3: - x3 - x4 - x5 >= -2
 c8_window4: x4 + x5 + x6 >= 1
 c9_window4: - x4 - x5 - x6 >= -2
 c10_window5: x5 + x6 + x7 >= 1
 c11_window5: - x5 - x6 - x7 >= -2
 c12_window6: x6 + x7 + x8 >= 1
 c13_window6: - x6 - x7 - x8 >= -2
 c14_window7: x7 + x8 + x9 >= 1
 c15_window7: - x7 - x8 - x9 >= -2
 c16_window8: x8 + x9 + x10 >= 1
 c17_window8: - x8 - x9 - x10 >= -2
 c18_window9: x9 + x10 + x11 >= 1
 c19_window9: - x9 - x10 - x11 >= -2
 c20_window10: x10 + x11 + x12 >= 1
 c21_window10: - x10 - x11 - x12 >= -2
 c22_window11: x11 + x12 + x13 >= 1
 c23_window11: - x11 - x12 - x13 >= -2
 c24_window12: x12 + x13 + x14 >= 1
 c25_window12: - x12 - x13 - x14 >= -2
 c26_window13: x13 + x14 + x15 >= 1
 c27_window13: - x13 - x14 - x15 >= -2
 c28_window14: x14 + x15 + x16 >= 1
 c29_window14: - x14 - x15 - x16 >= -2
 c30_window15: x15 + x16 + x17 >= 1
 c31_window15: - x15 - x16 - x17 >= -2
 c32_window16: x16 + x17 + x18 >= 1
 c33_window16: - x16 - x17 - x18 >= -2
 c34_window17: x17 + x18 + x19 >= 1
 c35_window17: - x17 - x18 - x19 >= -2
 c36_window18: x18 + x19 + x20 >= 1
 c37_window18: - x18 - x19 - x20 >= -2
 c38_window19: x19 + x20 + x21 >= 1
 c39_window19: - x19 - x20 - x21 >= -2
 c40_window20: x20 + x21 + x22 >= 1
 c41_window20: - x20 - x21 - x22 >= -2
 c42_window21: x21 + x22 + x23 >= 1
 c43_window21: - x21 - x22 - x23 >= -2
 c44_window22: x22 + x23 + x24 >= 1
 c45_window22: - x22 - x23 - x24 >= -2
 c46_window23: x23 + x24 + x25 >= 1
 c47_window23: - x23 - x24 - x25 >= -2
 c48_window24: x24 + x25 + x26 >= 1
 c49_window24: - x24 - x25 - x26 >= -2
 c50_window25: x25 + x26 + x27 >= 1
 c51_window25: - x25 - x26 - x27 >= -2
 c52_window26: x26 + x27 + x28 >= 1
 c53_window26: - x26 - x27 - x28 >= -2
 c54_window27: x27 + x28 + x29 >= 1
 c55_window27: - x27 - x28 - x29 >= -2
 c56_window28: x28 + x29 + x30 >= 1
 c57_window28: - x28 - x29 - x30 >= -2
 c58_window29: x29 + x30 + x31 >= 1
 c59_window29: - x29 - x30 - x31 >= -2
 c60_window30: x30 + x31 + x32 >= 1
 c61_window30: - x30 - x31 - x32 >= -2
 c62_window31: x31 + x32 + x33 >= 1
 c63_window31: - x31 - x32 - x33 >= -2
 c64_window32: x32 + x33 + x34 >= 1
 c65_window32: - x32 - x33 - x34 >= -2
 c66_window33: x33 + x34 + x35 >= 1
 c67_window33: - x33 - x34 - x35 >= -2
 c68_window34: x34 + x35 + x36 >= 1
 c69_window34: - x34 - x35 - x36 >= -2
 c70_window35: x35 + x36 + x37 >= 1
 c71_window35: - x35 - x36 - x37 >= -2
 c72_window36: x36 + x37 + x38 >= 1
 c73_window36: - x36 - x37 - x38 >= -2
 c74_window37: x37 + x38 + x39 >= 1
 c75_window37: - x37 - x38 - x39 >= -2
 c76_window38: x38 + x39 + x40 >= 1
 c77_window38: - x38 - x39 - x40 >= -2
 c78_window39: x39 + x40 + x41 >= 1
 c79_window39: - x39 - x40 - x41 >= -2
 c80_window40: x40 + x41 + x42 >= 1
 c81_window40: - x40 - x41 - x42 >= -2
 c82_window41: x41 + x42 + x43 >= 1
 c83_window41: - x41 - x42 - x43 >= -2
 c84_window42: x42 + x43 + x44 >= 1
 c85_window42: - x42 - x43 - x44 >= -2
 c86_window43: x43 + x44 + x45 >= 1
 c87_window43: - x43 - x44 - x45 >= -2
 c88_window44: x44 + x45 + x46 >= 1
 c89_window44: - x44 - x45 - x46 >= -2
 c90_window45: x45 + x46 + x47 >= 1
 c91_window45: - x45 - x46 - x47 >= -2
 c92_window46: x46 + x47 + x48 >= 1
 c93_window46: - x46 - x47 - x48 >= -2
 c94_window47: x47 + x48 + x49 >= 1
 c95_window47: - x47 - x48 - x49 >= -2
 c96_window48: x48 + x49 + x50 >= 1
 c97_window48: - x48 - x49 - x50 >= -2
 c98_window49: x49 + x50 + x51 >= 1
 c99_window49: - x49 - x50 - x51 >= -2
 c100_window50: x50 + x51 + x52 >= 1
 c101_window50: - x50 - x51 - x52 >= -2
 c102_window51: x51 + x52 + x53 >= 1
 c103_window51: - x51 - x52 - x53 >= -2
 c104_window52: x52 + x53 + x54 >= 1
 c105_window52: - x52 - x53 - x54 >= -2
 c106_window53: x53 + x54 + x55 >= 1
 c107_window53: - x53 - x54 - x55 >= -2
 c108_window54: x54 + x55 + x56 >= 1
 c109_window54: - x54 - x55 - x56 >= -2
 c110_window55: x55 + x56 + x57 >= 1
 c111_window55: - x55 - x56 - x57 >= -2
 c112_window56: x56 + x57 + x58 >= 1
 c113_window56: - x56 - x57 - x58 >= -2
 c114_window57: x57 + x58 + x59 >= 1
 c115_window57: - x57 - x58 - x59 >= -2
 c116_window58: x58 + x59 + x60 >= 1
 c117_window58: - x58 - x59 - x60 >= -2
 c118_window59: x59 + x60 + x61 >= 1
 c119_window59: - x59 - x60 - x61 >= -2
 c120_window60: x60 + x61 + x62 >= 1
 c121_window60: - x60 - x61 - x62 >= -2
 c122_window61: x61 + x62 + x63 >= 1
 c123_window61: - x61 - x62 - x63 >= -2
 c124_window62: x62 + x63 + x64 >= 1
 c125_window62: - x62 - x63 - x64 >= -2
 c126_window63: x63 + x64 + x65 >= 1
 c127_window63: - x63 - x64 - x65 >= -2
 c128_window64: x64 + x65 + x66 >= 1
 c129_window64: - x64 - x65 - x66 >= -2
 c130_window65: x65 + x66 + x67 >= 1
 c131_window65: - x65 - x66 - x67 >= -2
 c132_window66: x66 + x67 + x68 >= 1
 c133_window66: - x66 - x67 - x68 >= -2
 c134_window67: x67 + x68 + x69 >= 1
 c135_window67: - x67 - x68 - x69 >= -2
 c136_window68: x68 + x69 + x70 >= 1
 c137_window68: - x68 - x69 - x70 >= -2
 c138_window69: x69 + x70 + x71 >= 1
 c139_window69: - x69 - x70 - x71 >= -2
 c140_window70: x70 + x71 + x72 >= 1
 c141_window70: - x70 - x71 - x72 >= -2
 c142_window71: x71 + x72 + x73 >= 1
 c143_window71: - x71 - x72 - x73 >= -2
 c144_window72: x72 + x73 + x74 >= 1
 c145_window72: - x72 - x73 - x74 >= -2
 c146_window73: x73 + x74 + x75 >= 1
 c147_window73: - x73 - x74 - x75 >= -2
 c148_window74: x74 + x75 + x76 >= 1
 c149_window74: - x74 - x75 - x76 >= -2
 c150_window75: x75 + x76 + x77 >= 1
 c151_window75: - x75 - x76 - x77 >= -2
 c152_window76: x76 + x77 + x78 >= 1
 c153_window76: - x76 - x77 - x78 >= -2
 c154_window77: x77 + x78 + x79 >= 1
 c155_window77: - x77 - x78 - x79 >= -2
 c156_window78: x78 + x79 + x80 >= 1
 c157_window78: - x78 - x79 - x80 >= -2
 c158_window79: x79 + x80 + x81 >= 1
 c159_window79: - x79 - x80 - x81 >= -2
 c160_window80: x80 + x81 + x82 >= 1
 c161_window80: - x80 - x81 - x82 >= -2
 c162_window81: x81 + x82 + x83 >= 1
 c163_window81: - x81 - x82 - x83 >= -2
 c164_window82: x82 + x83 + x84 >= 1
 c165_window82: - x82 - x83 - x84 >= -2
 c166_window83: x83 + x84 + x85 >= 1
 c167_window83: - x83 - x84 - x85 >= -2
 c168_window84: x84 + x85 + x86 >= 1
 c169_window84: - x84 - x85 - x86 >= -2
 c170_window85: x85 + x86 + x87 >= 1
 c171_window85: - x85 - x86 - x87 >= -2
 c172_window86: x86 + x87 + x88 >= 1
 c173_window86: - x86 - x87 - x88 >= -2
 c174_window87: x87 + x88 + x89 >= 1
 c175_window87: - x87 - x88 - x89 >= -2
 c176_window88: x88 + x89 + x90 >= 1
 c177_window88: - x88 - x89 - x90 >= -2
 c178_window89: x89 + x90 + x91 >= 1
 c179_window89: - x89 - x90 - x91 >= -2
 c180_window90: x90 + x91 + x92 >= 1
 c181_window90: - x90 - x91 - x92 >= -2
 c182_window91: x91 + x92 + x93 >= 1
 c183_window91: - x91 - x92 - x93 >= -2
 c184_window92: x92 + x93 + x94 >= 1
 c185_window92: - x92 - x93 - x94 >= -2
 c186_window93: x93 + x94 + x95 >= 1
 c187_window93: - x93 - x94 - x95 >= -2
 c188_window94: x94 + x95 + x96 >= 1
 c189_window94: - x94 - x95 - x96 >= -2
 c190_window95: x95 + x96 + x97 >= 1
 c191_window95: - x95 - x96 - x97 >= -2
 c192_window96: x96 + x97 + x98 >= 1
 c193_window96: - x96 - x97 - x98 >= -2
 c194_window97: x97 + x98 + x99 >= 1
 c195_window97: - x97 - x98 - x99 >= -2
 c196_window98: x98 + x99 + x100 >= 1
 c197_window98: - x98 - x99 - x100 >= -2
 c198_window99: x99 + x100 + x101 >= 1
 c199_window99: - x99 - x100 - x101 >= -2
 c200_window100: x100 + x101 + x102 >= 1
 c201_window100: - x100 - x101 - x102 >= -2
 c202_window101: x101 + x102 + x103 >= 1
 c203_window101: - x101 - x102 - x103 >= -2
 c204_window102: x102 + x103 + x104 >= 1
 c205_window102: - x102 - x103 - x104 >= -2
 c206_window103: x103 + x104 + x105 >= 1
 c207_window103: - x103 - x104 - x105 >= -2
 c208_window104: x104 + x105 + x106 >= 1
 c209_window104: - x104 - x105 - x106 >= -2
 c210_window105: x105 + x106 + x107 >= 1
 c211_window105: - x105 - x106 - x107 >= -2
 c212_window106: x106 + x107 + x108 >= 1
 c213_window106: - x106 - x107 - x108 >= -2
 c214_window107: x107 + x108 + x109 >= 1
 c215_window107: - x107 - x108 - x109 >= -2
 c216_window108: x108 + x109 + x110 >= 1
 c217_window108: - x108 - x109 - x110 >= -2
 c218_window109: x109 + x110 + x111 >= 1
 c219_window109: - x109 - x110 - x111 >= -2
 c220_window110: x110 + x111 + x112 >= 1
 c221_window110: - x110 - x111 - x112 >= -2
 c222_window111: x111 + x112 + x113 >= 1
 c223_window111: - x111 - x112 - x113 >= -2
 c224_window112: x112 + x113 + x114 >= 1
 c225_window112: - x112 - x113 - x114 >= -2
 c226_window113: x113 + x114 + x115 >= 1
 c227_window113: - x113 - x114 - x115 >= -2
 c228_window114: x114 + x115 + x116 >= 1
 c229_window114: - x114 - x115 - x116 >= -2
 c230_window115: x115 + x116 + x117 >= 1
 c231_window115: - x115 - x116 - x117 >= -2
 c232_window116: x116 + x117 + x118 >= 1
 c233_window116: - x116 - x117 - x118 >= -2
 c234_window117: x117 + x118 + x119 >= 1
 c235_window117: - x117 - x118 - x119 >= -2
 c236_window118: x118 + x119 + x120 >= 1
 c237_window118: - x118 - x119 - x120 >= -2
 c238_window119: x119 + x120 + x121 >= 1
 c239_window119: - x119 - x120 - x121 >= -2
 c240_window120: x120 + x121 + x122 >= 1
 c241_window120: - x120 - x121 - x122 >= -2
 c242_window121: x121 + x122 + x123 >= 1
 c243_window121: - x121 - x122 - x123 >= -2
 c244_window122: x122 + x123 + x124 >= 1
 c245_window122: - x122 - x123 - x124 >= -2
 c246_window123: x123 + x124 + x125 >= 1
 c247_window123: - x123 - x124 - x125 >= -2
 c248_window124: x124 + x125 + x126 >= 1
 c249_window124: - x124 - x125 - x126 >= -2
 c250_window125: x125 + x126 + x127 >= 1
 c251_window125: - x125 - x126 - x127 >= -2
 c252_window126: x126 + x127 + x128 >= 1
 c253_window126: - x126 - x127 - x128 >= -2
 c254_window127: x127 + x128 + x129 >= 1
 c255_window127: - x127 - x128 - x129 >= -2
 c256_window128: x128 + x129 + x130 >= 1
 c257_window128: - x128 - x129 - x130 >= -2
 c258_window129: x129 + x130 + x131 >= 1
 c259_window129: - x129 - x130 - x131 >= -2
 c260_window130: x130 + x131 + x132 >= 1
 c261_window130: - x130 - x131 - x132 >= -2
 c262_window131: x131 + x132 + x133 >= 1
 c263_window131: - x131 - x132 - x133 >= -2
 c264_window132: x132 + x133 + x134 >= 1
 c265_window132: - x132 - x133 - x134 >= -2
 c266_window133: x133 + x134 + x135 >= 1
 c267_window133: - x133 - x134 - x135 >= -2
 c268_window134: x134 + x135 + x136 >= 1
 c269_window134: - x134 - x135 - x136 >= -2
 c270_window135: x135 + x136 + x137 >= 1
 c271_window135: - x135 - x136 - x137 >= -2
 c272_window136: x136 + x137 + x138 >= 1
 c273_window136: - x136 - x137 - x138 >= -2
 c274_window137: x137 + x138 + x139 >= 1
 c275_window137: - x137 - x138 - x139 >= -2
 c276_window138: x138 + x139 + x140 >= 1
 c277_window138: - x138 - x139 - x140 >= -2
 c278_window139: x139 + x140 + x141 >= 1
 c279_window139: - x139 - x140 - x141 >= -2
 c280_window140: x140 + x141 + x142 >= 1
 c281_window140: - x140 - x141 - x142 >= -2
 c282_window141: x141 + x142 + x143 >= 1
 c283_window141: - x141 - x142 - x143 >= -2
 c284_window142: x142 + x143 + x144 >= 1
 c285_window142: - x142 - x143 - x144 >= -2
 c286_window143: x143 + x144 + x145 >= 1
 c287_window143: - x143 - x144 - x145 >= -2
 c288_window144: x144 + x145 + x146 >= 1
 c289_window144: - x144 - x145 - x146 >= -2
 c290_window145: x145 + x146 + x147 >= 1
 c291_window145: - x145 - x146 - x147 >= -2
 c292_window146: x146 + x147 + x148 >= 1
 c293_window146: - x146 - x147 - x148 >= -2
 c294_window147: x147 + x148 + x149 >= 1
 c295_window147: - x147 - x148 - x149 >= -2
 c296_window148: x148 + x149 + x150 >= 1
 c297_window148: - x148 - x149 - x150 >= -2
 c298_window149: x149 + x150 + x151 >= 1
 c299_window149: - x149 - x150 - x151 >= -2
 c300_window150: x150 + x151 + x152 >= 1
 c301_window150: - x150 - x151 - x152 >= -2
 c302_window151: x151 + x152 + x153 >= 1
 c303_window151: - x151 - x152 - x153 >= -2
 c304_window152: x152 + x153 + x154 >= 1
 c305_window152: - x152 - x153 - x154 >= -2
 c306_window153: x153 + x154 + x155 >= 1
 c307_window153: - x153 - x154 - x155 >= -2
 c308_window154: x154 + x155 + x156 >= 1
 c309_window154: - x154 - x155 - x156 >= -2
 c310_window155: x155 + x156 + x157 >= 1
 c311_window155: - x155 - x156 - x157 >= -2
 c312_window156: x156 + x157 + x158 >= 1
 c313_window156: - x156 - x157 - x158 >= -2
 c314_window157: x157 + x158 + x159 >= 1
 c315_window157: - x157 - x158 - x159 >= -2
 c316_window158: x158 + x159 + x160 >= 1
 c317_window158: - x158 - x159 - x160 >= -2
 c318_window159: x159 + x160 + x161 >= 1
 c319_window159: - x159 - x160 - x161 >= -2
 c320_window160: x160 + x161 + x162 >= 1
 c321_window160: - x160 - x161 - x162 >= -2
 c322_window161: x161 + x162 + x163 >= 1
 c323_window161: - x161 - x162 - x163 >= -2
 c324_window162: x162 + x163 + x164 >= 1
 c325_window162: - x162 - x163 - x164 >= -2
 c326_window163: x163 + x164 + x165 >= 1
 c327_window163: - x163 - x164 - x165 >= -2
 c328_window164: x164 + x165 + x166 >= 1
 c329_window164: - x164 - x165 - x166 >= -2
 c330_window165: x165 + x166 + x167 >= 1
 c331_window165: - x165 - x166 - x167 >= -2
 c332_window166: x166 + x167 + x168 >= 1
 c333_window166: - x166 - x167 - x168 >= -2
 c334_window167: x167 + x168 + x169 >= 1
 c335_window167: - x167 - x168 - x169 >= -2
 c336_window168: x168 + x169 + x170 >= 1
 c337_window168: - x168 - x169 - x170 >= -2
 c338_window169: x169 + x170 + x171 >= 1
 c339_window169: - x169 - x170 - x171 >= -2
 c340_window170: x170 + x171 + x172 >= 1
 c341_window170: - x170 - x171 - x172 >= -2
 c342_window171: x171 + x172 + x173 >= 1
 c343_window171: - x171 - x172 - x173 >= -2
 c344_window172: x172 + x173 + x174 >= 1
 c345_window172: - x172 - x173 - x174 >= -2
 c346_window173: x173 + x174 + x175 >= 1
 c347_window173: - x173 - x174 - x175 >= -2
 c348_window174: x174 + x175 + x176 >= 1
 c349_window174: - x174 - x175 - x176 >= -2
 c350_window175: x175 + x176 + x177 >= 1
 c351_window175: - x175 - x176 - x177 >= -2
 c352_window176: x176 + x177 + x178 >= 1
 c353_window176: - x176 - x177 - x178 >= -2
 c354_window177: x177 + x178 + x179 >= 1
 c355_window177: - x177 - x178 - x179 >= -2
 c356_window178: x178 + x179 + x180 >= 1
 c357_window178: - x178 - x179 - x180 >= -2
 c358_window179: x179 + x180 + x181 >= 1
 c359_window179: - x179 - x180 - x181 >= -2
 c360_window180: x180 + x181 + x182 >= 1
 c361_window180: - x180 - x181 - x182 >= -2
 c362_window181: x181 + x182 + x183 >= 1
 c363_window181: - x181 - x182 - x183 >= -2
 c364_window182: x182 + x183 + x184 >= 1
 c365_window182: - x182 - x183 - x184 >= -2
 c366_window183: x183 + x184 + x185 >= 1
 c367_window183: - x183 - x184 - x185 >= -2
 c368_window184: x184 + x185 + x186 >= 1
 c369_window184: - x184 - x185 - x186 >= -2
 c370_window185: x185 + x186 + x187 >= 1
 c371_window185: - x185 - x186 - x187 >= -2
 c372_window186: x186 + x187 + x188 >= 1
 c373_window186: - x186 - x187 - x188 >= -2
 c374_window187: x187 + x188 + x189 >= 1
 c375_window187: - x187 - x188 - x189 >= -2
 c376_window188: x188 + x189 + x190 >= 1
 c377_window188: - x188 - x189 - x190 >= -2
 c378_window189: x189 + x190 + x191 >= 1
 c379_window189: - x189 - x190 - x191 >= -2
 c380_window190: x190 + x191 + x192 >= 1
 c381_window190: - x190 - x191 - x192 >= -2
 c382_window191: x191 + x192 + x193 >= 1
 c383_window191: - x191 - x192 - x193 >= -2
 c384_window192: x192 + x193 + x194 >= 1
 c385_window192: - x192 - x193 - x194 >= -2
 c386_window193: x193 + x194 + x195 >= 1
 c387_window193: - x193 - x194 - x195 >= -2
 c388_window194: x194 + x195 + x196 >= 1
 c389_window194: - x194 - x195 - x196 >= -2
 c390_window195: x195 + x196 + x197 >= 1
 c391_window195: - x195 - x196 - x197 >= -2
 c392_window196: x196 + x197 + x198 >= 1
 c393_window196: - x196 - x197 - x198 >= -2
 c394_window197: x197 + x198 + x199 >= 1
 c395_window197: - x197 - x198 - x199 >= -2
 c396_window198: x198 + x199 + x200 >= 1
 c397_window198: - x198 - x199 - x200 >= -2
 c398_window199: x199 + x200 + x201 >= 1
 c399_window199: - x199 - x200 - x201 >= -2
 c400_window200: x200 + x201 + x202 >= 1
 c401_window200: - x200 - x201 - x202 >= -2
 c402_window201: x201 + x202 + x203 >= 1
 c403_window201: - x201 - x202 - x203 >= -2
 c404_window202: x202 + x203 + x204 >= 1
 c405_window202: - x202 - x203 - x204 >= -2
 c406_window203: x203 + x204 + x205 >= 1
 c407_window203: - x203 - x204 - x205 >= -2
 c408_window204: x204 + x205 + x206 >= 1
 c409_window204: - x204 - x205 - x206 >= -2
 c410_window205: x205 + x206 + x207 >= 1
 c411_window205: - x205 - x206 - x207 >= -2
 c412_window206: x206 + x207 + x208 >= 1
 c413_window206: - x206 - x207 - x208 >= -2
 c414_window207: x207 + x208 + x209 >= 1
 c415_window207: - x207 - x208 - x209 >= -2
 c416_window208: x208 + x209 + x210 >= 1
 c417_window208: - x208 - x209 - x210 >= -2
 c418_window209: x209 + x210 + x211 >= 1
 c419_window209: - x209 - x210 - x211 >= -2
 c420_window210: x210 + x211 + x212 >= 1
 c421_window210: - x210 - x211 - x212 >= -2
 c422_window211: x211 + x212 + x213 >= 1
 c423_window211: - x211 - x212 - x213 >= -2
 c424_window212: x212 + x213 + x214 >= 1
 c425_window212: - x212 - x213 - x214 >= -2
 c426_window213: x213 + x214 + x215 >= 1
 c427_window213: - x213 - x214 - x215 >= -2
 c428_window214: x214 + x215 + x216 >= 1
 c429_window214: - x214 - x215 - x216 >= -2
 c430_window215: x215 + x216 + x217 >= 1
 c431_window215: - x215 - x216 - x217 >= -2
 c432_window216: x216 + x217 + x218 >= 1
 c433_window216: - x216 - x217 - x218 >= -2
 c434_window217: x217 + x218 + x219 >= 1
 c435_window217: - x217 - x218 - x219 >= -2
 c436_window218: x218 + x219 + x220 >= 1
 c437_window218: - x218 - x219 - x220 >= -2
 c438_window219: x219 + x220 + x221 >= 1
 c439_window219: - x219 - x220 - x221 >= -2
 c440_window220: x220 + x221 + x222 >= 1
 c441_window220: - x220 - x221 - x222 >= -2
 c442_window221: x221 + x222 + x223 >= 1
 c443_window221: - x221 - x222 - x223 >= -2
 c444_window222: x222 + x223 + x224 >= 1
 c445_window222: - x222 - x223 - x224 >= -2
 c446_window223: x223 + x224 + x225 >= 1
 c447_window223: - x223 - x224 - x225 >= -2
 c448_window224: x224 + x225 + x226 >= 1
 c449_window224: - x224 - x225 - x226 >= -2
 c450_window225: x225 + x226 + x227 >= 1
 c451_window225: - x225 - x226 - x227 >= -2
 c452_window226: x226 + x227 + x228 >= 1
 c453_window226: - x226 - x227 - x228 >= -2
 c454_window227: x227 + x228 + x229 >= 1
 c455_window227: - x227 - x228 - x229 >= -2
 c456_window228: x228 + x229 + x230 >= 1
 c457_window228: - x228 - x229 - x230 >= -2
 c458_window229: x229 + x230 + x231 >= 1
 c459_window229: - x229 - x230 - x231 >= -2
 c460_window230: x230 + x231 + x232 >= 1
 c461_window230: - x230 - x231 - x232 >= -2
 c462_window231: x231 + x232 + x233 >= 1
 c463_window231: - x231 - x232 - x233 >= -2
 c464_window232: x232 + x233 + x234 >= 1
 c465_window232: - x232 - x233 - x234 >= -2
 c466_window233: x233 + x234 + x235 >= 1
 c467_window233: - x233 - x234 - x235 >= -2
 c468_window234: x234 + x235 + x236 >= 1
 c469_window234: - x234 - x235 - x236 >= -2
 c470_window235: x235 + x236 + x237 >= 1
 c471_window235: - x235 - x236 - x237 >= -2
 c472_window236: x236 + x237 + x238 >= 1
 c473_window236: - x236 - x237 - x238 >= -2
 c474_window237: x237 + x238 + x239 >= 1
 c475_window237: - x237 - x238 - x239 >= -2
 c476_window238: x238 + x239 + x240 >= 1
 c477_window238: - x238 - x239 - x240 >= -2
 c478_window239: x239 + x240 + x241 >= 1
 c479_window239: - x239 - x240 - x241 >= -2
 c480_window240: x240 + x241 + x242 >= 1
 c481_window240: - x240 - x241 - x242 >= -2
 c482_window241: x241 + x242 + x243 >= 1
 c483_window241: - x241 - x242 - x243 >= -2
 c484_window242: x242 + x243 + x244 >= 1
 c485_window242: - x242 - x243 - x244 >= -2
 c486_window243: x243 + x244 + x245 >= 1
 c487_window243: - x243 - x244 - x245 >= -2
 c488_window244: x244 + x245 + x246 >= 1
 c489_window244: - x244 - x245 - x246 >= -2
 c490_window245: x245 + x246 + x247 >= 1
 c491_window245: - x245 - x246 - x247 >= -2
 c492_window246: x246 + x247 + x248 >= 1
 c493_window246: - x246 - x247 - x248 >= -2
 c494_window247: x247 + x248 + x249 >= 1
 c495_window247: - x247 - x248 - x249 >= -2
 c496_window248: x248 + x249 + x250 >= 1
 c497_window248: - x248 - x249 - x250 >= -2
 c498_window249: x249 + x250 + x251 >= 1
 c499_window249: - x249 - x250 - x251 >= -2
 c500_window250: x250 + x251 + x252 >= 1
 c501_window250: - x250 - x251 - x252 >= -2
 c502_window251: x251 + x252 + x253 >= 1
 c503_window251: - x251 - x252 - x253 >= -2
 c504_window252: x252 + x253 + x254 >= 1
 c505_window252: - x252 - x253 - x254 >= -2
 c506_window253: x253 + x254 + x255 >= 1
 c507_window253: - x253 - x254 - x255 >= -2
 c508_window254: x254 + x255 + x256 >= 1
 c509_window254: - x254 - x255 - x256 >= -2
 c510_window255: x255 + x256 + x257 >= 1
 c511_window255: - x255 - x256 - x257 >= -2
 c512_window256: x256 + x257 + x258 >= 1
 c513_window256: - x256 - x257 - x258 >= -2
 c514_window257: x257 + x258 + x259 >= 1
 c515_window257: - x257 - x258 - x259 >= -2
 c516_window258: x258 + x259 + x260 >= 1
 c517_window258: - x258 - x259 - x260 >= -2
 c518_window259: x259 + x260 + x261 >= 1
 c519_window259: - x259 - x260 - x261 >= -2
 c520_window260: x260 + x261 + x262 >= 1
 c521_window260: - x260 - x261 - x262 >= -2
 c522_window261: x261 + x262 + x263 >= 1
 c523_window261: - x261 - x262 - x263 >= -2
 c524_window262: x262 + x263 + x264 >= 1
 c525_window262: - x262 - x263 - x264 >= -2
 c526_window263: x263 + x264 + x265 >= 1
 c527_window263: - x263 - x264 - x265 >= -2
 c528_window264: x264 + x265 + x266 >= 1
 c529_window264: - x264 - x265 - x266 >= -2
 c530_window265: x265 + x266 + x267 >= 1
 c531_window265: - x265 - x266 - x267 >= -2
 c532_window266: x266 + x267 + x268 >= 1
 c533_window266: - x266 - x267 - x268 >= -2
 c534_window267: x267 + x268 + x269 >= 1
 c535_window267: - x267 - x268 - x269 >= -2
 c536_window268: x268 + x269 + x270 >= 1
 c537_window268: - x268 - x269 - x270 >= -2
 c538_window269: x269 + x270 + x271 >= 1
 c539_window269: - x269 - x270 - x271 >= -2
 c540_window270: x270 + x271 + x272 >= 1
 c541_window270: - x270 - x271 - x272 >= -2
 c542_window271: x271 + x272 + x273 >= 1
 c543_window271: - x271 - x272 - x273 >= -2
 c544_window272: x272 + x273 + x274 >= 1
 c545_window272: - x272 - x273 - x274 >= -2
 c546_window273: x273 + x274 + x275 >= 1
 c547_window273: - x273 - x274 - x275 >= -2
 c548_window274: x274 + x275 + x276 >= 1
 c549_window274: - x274 - x275 - x276 >= -2
 c550_window275: x275 + x276 + x277 >= 1
 c551_window275: - x275 - x276 - x277 >= -2
 c552_window276: x276 + x277 + x278 >= 1
 c553_window276: - x276 - x277 - x278 >= -2
 c554_window277: x277 + x278 + x279 >= 1
 c555_window277: - x277 - x278 - x279 >= -2
 c556_window278: x278 + x279 + x280 >= 1
 c557_window278: - x278 - x279 - x280 >= -2
 c558_window279: x279 + x280 + x281 >= 1
 c559_window279: - x279 - x280 - x281 >= -2
 c560_window280: x280 + x281 + x282 >= 1
 c561_window280: - x280 - x281 - x282 >= -2
 c562_window281: x281 + x282 + x283 >= 1
 c563_window281: - x281 - x282 - x283 >= -2
 c564_window282: x282 + x283 + x284 >= 1
 c565_window282: - x282 - x283 - x284 >= -2
 c566_window283: x283 + x284 + x285 >= 1
 c567_window283: - x283 - x284 - x285 >= -2
 c568_window284: x284 + x285 + x286 >= 1
 c569_window284: - x284 - x285 - x286 >= -2
 c570_window285: x285 + x286 + x287 >= 1
 c571_window285: - x285 - x286 - x287 >= -2
 c572_window286: x286 + x287 + x288 >= 1
 c573_window286: - x286 - x287 - x288 >= -2
 c574_window287: x287 + x288 + x289 >= 1
 c575_window287: - x287 - x288 - x289 >= -2
 c576_window288: x288 + x289 + x290 >= 1
 c577_window288: - x288 - x289 - x290 >= -2
 c578_window289: x289 + x290 + x291 >= 1
 c579_window289: - x289 - x290 - x291 >= -2
 c580_window290: x290 + x291 + x292 >= 1
 c581_window290: - x290 - x291 - x292 >= -2
 c582_window291: x291 + x292 + x293 >= 1
 c583_window291: - x291 - x292 - x293 >= -2
 c584_window292: x292 + x293 + x294 >= 1
 c585_window292: - x292 - x293 - x294 >= -2
 c586_window293: x293 + x294 + x295 >= 1
 c587_window293: - x293 - x294 - x295 >= -2
 c588_window294: x294 + x295 + x296 >= 1
 c589_window294: - x294 - x295 - x296 >= -2
 c590_window295: x295 + x296 + x297 >= 1
 c591_window295: - x295 - x296 - x297 >= -2
 c592_window296: x296 + x297 + x298 >= 1
 c593_window296: - x296 - x297 - x298 >= -2
 c594_window297: x297 + x298 + x299 >= 1
 c595_window297: - x297 - x298 - x299 >= -2
 c596_window298: x298 + x299 + x300 >= 1
 c597_window298: - x298 - x299 - x300 >= -2
 c598_window299: x299 + x300 + x301 >= 1
 c599_window299: - x299 - x300 - x301 >= -2
 c600_window300: x300 + x301 + x302 >= 1
 c601_window300: - x300 - x301 - x302 >= -2
 c602_window301: x301 + x302 + x303 >= 1
 c603_window301: - x301 - x302 - x303 >= -2
 c604_window302: x302 + x303 + x304 >= 1
 c605_window302: - x302 - x303 - x304 >= -2
 c606_window303: x303 + x304 + x305 >= 1
 c607_window303: - x303 - x304 - x305 >= -2
 c608_window304: x304 + x305 + x306 >= 1
 c609_window304: - x304 - x305 - x306 >= -2
 c610_window305: x305 + x306 + x307 >= 1
 c611_window305: - x305 - x306 - x307 >= -2
 c612_window306: x306 + x307 + x308 >= 1
 c613_window306: - x306 - x307 - x308 >= -2
 c614_window307: x307 + x308 + x309 >= 1
 c615_window307: - x307 - x308 - x309 >= -2
 c616_window308: x308 + x309 + x310 >= 1
 c617_window308: - x308 - x309 - x310 >= -2
 c618_window309: x309 + x310 + x311 >= 1
 c619_window309: - x309 - x310 - x311 >= -2
 c620_window310: x310 + x311 + x312 >= 1
 c621_window310: - x310 - x311 - x312 >= -2
 c622_window311: x311 + x312 + x313 >= 1
 c623_window311: - x311 - x312 - x313 >= -2
 c624_window312: x312 + x313 + x314 >= 1
 c625_window312: - x312 - x313 - x314 >= -2
 c626_window313: x313 + x314 + x315 >= 1
 c627_window313: - x313 - x314 - x315 >= -2
 c628_window314: x314 + x315 + x316 >= 1
 c629_window314: - x314 - x315 - x316 >= -2
 c630_window315: x315 + x316 + x317 >= 1
 c631_window315: - x315 - x316 - x317 >= -2
 c632_window316: x316 + x317 + x318 >= 1
 c633_window316: - x316 - x317 - x318 >= -2
 c634_window317: x317 + x318 + x319 >= 1
 c635_window317: - x317 - x318 - x319 >= -2
 c636_window318: x318 + x319 + x320 >= 1
 c637_window318: - x318 - x319 - x320 >= -2
 c638_window319: x319 + x320 + x321 >= 1
 c639_window319: - x319 - x320 - x321 >= -2
 c640_window320: x320 + x321 + x322 >= 1
 c641_window320: - x320 - x321 - x322 >= -2
 c642_window321: x321 + x322 + x323 >= 1
 c643_window321: - x321 - x322 - x323 >= -2
 c644_window322: x322 + x323 + x324 >= 1
 c645_window322: - x322 - x323 - x324 >= -2
 c646_window323: x323 + x324 + x325 >= 1
 c647_window323: - x323 - x324 - x325 >= -2
 c648_window324: x324 + x325 + x326 >= 1
 c649_window324: - x324 - x325 - x326 >= -2
 c650_window325: x325 + x326 + x327 >= 1
 c651_window325: - x325 - x326 - x327 >= -2
 c652_window326: x326 + x327 + x328 >= 1
 c653_window326: - x326 - x327 - x328 >= -2
 c654_window327: x327 + x328 + x329 >= 1
 c655_window327: - x327 - x328 - x329 >= -2
 c656_window328: x328 + x329 + x330 >= 1
 c657_window328: - x328 - x329 - x330 >= -2
 c658_window329: x329 + x330 + x331 >= 1
 c659_window329: - x329 - x330 - x331 >= -2
 c660_window330: x330 + x331 + x332 >= 1
 c661_window330: - x330 - x331 - x332 >= -2
 c662_window331: x331 + x332 + x333 >= 1
 c663_window331: - x331 - x332 - x333 >= -2
 c664_window332: x332 + x333 + x334 >= 1
 c665_window332: - x332 - x333 - x334 >= -2
 c666_window333: x333 + x334 + x335 >= 1
 c667_window333: - x333 - x334 - x335 >= -2
 c668_window334: x334 + x335 + x336 >= 1
 c669_window334: - x334 - x335 - x336 >= -2
 c670_window335: x335 + x336 + x337 >= 1
 c671_window335: - x335 - x336 - x337 >= -2
 c672_window336: x336 + x337 + x338 >= 1
 c673_window336: - x336 - x337 - x338 >= -2
 c674_window337: x337 + x338 + x339 >= 1
 c675_window337: - x337 - x338 - x339 >= -2
 c676_window338: x338 + x339 + x340 >= 1
 c677_window338: - x338 - x339 - x340 >= -2
 c678_window339: x339 + x340 + x341 >= 1
 c679_window339: - x339 - x340 - x341 >= -2
 c680_window340: x340 + x341 + x342 >= 1
 c681_window340: - x340 - x341 - x342 >= -2
 c682_window341: x341 + x342 + x343 >= 1
 c683_window341: - x341 - x342 - x343 >= -2
 c684_window342: x342 + x343 + x344 >= 1
 c685_window342: - x342 - x343 - x344 >= -2
 c686_window343: x343 + x344 + x345 >= 1
 c687_window343: - x343 - x344 - x345 >= -2
 c688_window344: x344 + x345 + x346 >= 1
 c689_window344: - x344 - x345 - x346 >= -2
 c690_window345: x345 + x346 + x347 >= 1
 c691_window345: - x345 - x346 - x347 >= -2
 c692_window346: x346 + x347 + x348 >= 1
 c693_window346: - x346 - x347 - x348 >= -2
 c694_window347: x347 + x348 + x349 >= 1
 c695_window347: - x347 - x348 - x349 >= -2
 c696_window348: x348 + x349 + x350 >= 1
 c697_window348: - x348 - x349 - x350 >= -2
 c698_window349: x349 + x350 + x351 >= 1
 c699_window349: - x349 - x350 - x351 >= -2
 c700_window350: x350 + x351 + x352 >= 1
 c701_window350: - x350 - x351 - x352 >= -2
 c702_window351: x351 + x352 + x353 >= 1
 c703_window351: - x351 - x352 - x353 >= -2
 c704_window352: x352 + x353 + x354 >= 1
 c705_window352: - x352 - x353 - x354 >= -2
 c706_window353: x353 + x354 + x355 >= 1
 c707_window353: - x353 - x354 - x355 >= -2
 c708_window354: x354 + x355 + x356 >= 1
 c709_window354: - x354 - x355 - x356 >= -2
 c710_window355: x355 + x356 + x357 >= 1
 c711_window355: - x355 - x356 - x357 >= -2
 c712_window356: x356 + x357 + x358 >= 1
 c713_window356: - x356 - x357 - x358 >= -2
 c714_window357: x357 + x358 + x359 >= 1
 c715_window357: - x357 - x358 - x359 >= -2
 c716_window358: x358 + x359 + x360 >= 1
 c717_window358: - x358 - x359 - x360 >= -2
 c718_window359: x359 + x360 + x361 >= 1
 c719_window359: - x359 - x360 - x361 >= -2
 c720_window360: x360 + x361 + x362 >= 1
 c721_window360: - x360 - x361 - x362 >= -2
 c722_window361: x361 + x362 + x363 >= 1
 c723_window361: - x361 - x362 - x363 >= -2
 c724_window362: x362 + x363 + x364 >= 1
 c725_window362: - x362 - x363 - x364 >= -2
 c726_window363: x363 + x364 + x365 >= 1
 c727_window363: - x363 - x364 - x365 >= -2
 c728_window364: x364 + x365 + x366 >= 1
 c729_window364: - x364 - x365 - x366 >= -2
 c730_window365: x365 + x366 + x367 >= 1
 c731_window365: - x365 - x366 - x367 >= -2
 c732_window366: x366 + x367 + x368 >= 1
 c733_window366: - x366 - x367 - x368 >= -2
 c734_window367: x367 + x368 + x369 >= 1
 c735_window367: - x367 - x368 - x369 >= -2
 c736_window368: x368 + x369 + x370 >= 1
 c737_window368: - x368 - x369 - x370 >= -2
 c738_window369: x369 + x370 + x371 >= 1
 c739_window369: - x369 - x370 - x371 >= -2
 c740_window370: x370 + x371 + x372 >= 1
 c741_window370: - x370 - x371 - x372 >= -2
 c742_window371: x371 + x372 + x373 >= 1
 c743_window371: - x371 - x372 - x373 >= -2
 c744_window372: x372 + x373 + x374 >= 1
 c745_window372: - x372 - x373 - x374 >= -2
 c746_window373: x373 + x374 + x375 >= 1
 c747_window373: - x373 - x374 - x375 >= -2
 c748_window374: x374 + x375 + x376 >= 1
 c749_window374: - x374 - x375 - x376 >= -2
 c750_window375: x375 + x376 + x377 >= 1
 c751_window375: - x375 - x376 - x377 >= -2
 c752_window376: x376 + x377 + x378 >= 1
 c753_window376: - x376 - x377 - x378 >= -2
 c754_window377: x377 + x378 + x379 >= 1
 c755_window377: - x377 - x378 - x379 >= -2
 c756_window378: x378 + x379 + x380 >= 1
 c757_window378: - x378 - x379 - x380 >= -2
 c758_window379: x379 + x380 + x381 >= 1
 c759_window379: - x379 - x380 - x381 >= -2
 c760_window380: x380 + x381 + x382 >= 1
 c761_window380: - x380 - x381 - x382 >= -2
 c762_window381: x381 + x382 + x383 >= 1
 c763_window381: - x381 - x382 - x383 >= -2
 c764_window382: x382 + x383 + x384 >= 1
 c765_window382: - x382 - x383 - x384 >= -2
 c766_window383: x383 + x384 + x385 >= 1
 c767_window383: - x383 - x384 - x385 >= -2
 c768_window384: x384 + x385 + x386 >= 1
 c769_window384: - x384 - x385 - x386 >= -2
 c770_window385: x385 + x386 + x387 >= 1
 c771_window385: - x385 - x386 - x387 >= -2
 c772_window386: x386 + x387 + x388 >= 1
 c773_window386: - x386 - x387 - x388 >= -2
 c774_window387: x387 + x388 + x389 >= 1
 c775_window387: - x387 - x388 - x389 >= -2
 c776_window388: x388 + x389 + x390 >= 1
 c777_window388: - x388 - x389 - x390 >= -2
 c778_window389: x389 + x390 + x391 >= 1
 c779_window389: - x389 - x390 - x391 >= -2
 c780_window390: x390 + x391 + x392 >= 1
 c781_window390: - x390 - x391 - x392 >= -2
 c782_window391: x391 + x392 + x393 >= 1
 c783_window391: - x391 - x392 - x393 >= -2
 c784_window392: x392 + x393 + x394 >= 1
 c785_window392: - x392 - x393 - x394 >= -2
 c786_window393: x393 + x394 + x395 >= 1
 c787_window393: - x393 - x394 - x395 >= -2
 c788_window394: x394 + x395 + x396 >= 1
 c789_window394: - x394 - x395 - x396 >= -2
 c790_window395: x395 + x396 + x397 >= 1
 c791_window395: - x395 - x396 - x397 >= -2
 c792_window396: x396 + x397 + x398 >= 1
 c793_window396: - x396 - x397 - x398 >= -2
 c794_window397: x397 + x398 + x399 >= 1
 c795_window397: - x397 - x398 - x399 >= -2
 c796_window398: x398 + x399 + x400 >= 1
 c797_window398: - x398 - x399 - x400 >= -2
 c798_window399: x399 + x400 + x401 >= 1
 c799_window399: - x399 - x400 - x401 >= -2
 c800_window400: x400 + x401 + x402 >= 1
 c801_window400: - x400 - x401 - x402 >= -2
 c802_window401: x401 + x402 + x403 >= 1
 c803_window401: - x401 - x402 - x403 >= -2
 c804_window402: x402 + x403 + x404 >= 1
 c805_window402: - x402 - x403 - x404 >= -2
 c806_window403: x403 + x404 + x405 >= 1
 c807_window403: - x403 - x404 - x405 >= -2
 c808_window404: x404 + x405 + x406 >= 1
 c809_window404: - x404 - x405 - x406 >= -2
 c810_window405: x405 + x406 + x407 >= 1
 c811_window405: - x405 - x406 - x407 >= -2
 c812_window406: x406 + x407 + x408 >= 1
 c813_window406: - x406 - x407 - x408 >= -2
 c814_window407: x407 + x408 + x409 >= 1
 c815_window407: - x407 - x408 - x409 >= -2
 c816_window408: x408 + x409 + x410 >= 1
 c817_window408: - x408 - x409 - x410 >= -2
 c818_window409: x409 + x410 + x411 >= 1
 c819_window409: - x409 - x410 - x411 >= -2
 c820_window410: x410 + x411 + x412 >= 1
 c821_window410: - x410 - x411 - x412 >= -2
 c822_window411: x411 + x412 + x413 >= 1
 c823_window411: - x411 - x412 - x413 >= -2
 c824_window412: x412 + x413 + x414 >= 1
 c825_window412: - x412 - x413 - x414 >= -2
 c826_window413: x413 + x414 + x415 >= 1
 c827_window413: - x413 - x414 - x415 >= -2
 c828_window414: x414 + x415 + x416 >= 1
 c829_window414: - x414 - x415 - x416 >= -2
 c830_window415: x415 + x416 + x417 >= 1
 c831_window415: - x415 - x416 - x417 >= -2
 c832_window416: x416 + x417 + x418 >= 1
 c833_window416: - x416 - x417 - x418 >= -2
 c834_window417: x417 + x418 + x419 >= 1
 c835_window417: - x417 - x418 - x419 >= -2
 c836_window418: x418 + x419 + x420 >= 1
 c837_window418: - x418 - x419 - x420 >= -2
 c838_window419: x419 + x420 + x421 >= 1
 c839_window419: - x419 - x420 - x421 >= -2
 c840_window420: x420 + x421 + x422 >= 1
 c841_window420: - x420 - x421 - x422 >= -2
 c842_window421: x421 + x422 + x423 >= 1
 c843_window421: - x421 - x422 - x423 >= -2
 c844_window422: x422 + x423 + x424 >= 1
 c845_window422: - x422 - x423 - x424 >= -2
 c846_window423: x423 + x424 + x425 >= 1
 c847_window423: - x423 - x424 - x425 >= -2
 c848_window424: x424 + x425 + x426 >= 1
 c849_window424: - x424 - x425 - x426 >= -2
 c850_window425: x425 + x426 + x427 >= 1
 c851_window425: - x425 - x426 - x427 >= -2
 c852_window426: x426 + x427 + x428 >= 1
 c853_window426: - x426 - x427 - x428 >= -2
 c854_window427: x427 + x428 + x429 >= 1
 c855_window427: - x427 - x428 - x429 >= -2
 c856_window428: x428 + x429 + x430 >= 1
 c857_window428: - x428 - x429 - x430 >= -2
 c858_window429: x429 + x430 + x431 >= 1
 c859_window429: - x429 - x430 - x431 >= -2
 c860_window430: x430 + x431 + x432 >= 1
 c861_window430: - x430 - x431 - x432 >= -2
 c862_window431: x431 + x432 + x433 >= 1
 c863_window431: - x431 - x432 - x433 >= -2
 c864_window432: x432 + x433 + x434 >= 1
 c865_window432: - x432 - x433 - x434 >= -2
 c866_window433: x433 + x434 + x435 >= 1
 c867_window433: - x433 - x434 - x435 >= -2
 c868_window434: x434 + x435 + x436 >= 1
 c869_window434: - x434 - x435 - x436 >= -2
 c870_window435: x435 + x436 + x437 >= 1
 c871_window435: - x435 - x436 - x437 >= -2
 c872_window436: x436 + x437 + x438 >= 1
 c873_window436: - x436 - x437 - x438 >= -2
 c874_window437: x437 + x438 + x439 >= 1
 c875_window437: - x437 - x438 - x439 >= -2
 c876_window438: x438 + x439 + x440 >= 1
 c877_window438: - x438 - x439 - x440 >= -2
 c878_window439: x439 + x440 + x441 >= 1
 c879_window439: - x439 - x440 - x441 >= -2
 c880_window440: x440 + x441 + x442 >= 1
 c881_window440: - x440 - x441 - x442 >= -2
 c882_window441: x441 + x442 + x443 >= 1
 c883_window441: - x441 - x442 - x443 >= -2
 c884_window442: x442 + x443 + x444 >= 1
 c885_window442: - x442 - x443 - x444 >= -2
 c886_window443: x443 + x444 + x445 >= 1
 c887_window443: - x443 - x444 - x445 >= -2
 c888_window444: x444 + x445 + x446 >= 1
 c889_window444: - x444 - x445 - x446 >= -2
 c890_window445: x445 + x446 + x447 >= 1
 c891_window445: - x445 - x446 - x447 >= -2
 c892_window446: x446 + x447 + x448 >= 1
 c893_window446: - x446 - x447 - x448 >= -2
 c894_window447: x447 + x448 + x449 >= 1
 c895_window447: - x447 - x448 - x449 >= -2
 c896_window448: x448 + x449 + x450 >= 1
 c897_window448: - x448 - x449 - x450 >= -2
 c898_window449: x449 + x450 + x451 >= 1
 c899_window449: - x449 - x450 - x451 >= -2
 c900_window450: x450 + x451 + x452 >= 1
 c901_window450: - x450 - x451 - x452 >= -2
 c902_window451: x451 + x452 + x453 >= 1
 c903_window451: - x451 - x452 - x453 >= -2
 c904_window452: x452 + x453 + x454 >= 1
 c905_window452: - x452 - x453 - x454 >= -2
 c906_window453: x453 + x454 + x455 >= 1
 c907_window453: - x453 - x454 - x455 >= -2
 c908_window454: x454 + x455 + x456 >= 1
 c909_window454: - x454 - x455 - x456 >= -2
 c910_window455: x455 + x456 + x457 >= 1
 c911_window455: - x455 - x456 - x457 >= -2
 c912_window456: x456 + x457 + x458 >= 1
 c913_window456: - x456 - x457 - x458 >= -2
 c914_window457: x457 + x458 + x459 >= 1
 c915_window457: - x457 - x458 - x459 >= -2
 c916_window458: x458 + x459 + x460 >= 1
 c917_window458: - x458 - x459 - x460 >= -2
 c918_window459: x459 + x460 + x461 >= 1
 c919_window459: - x459 - x460 - x461 >= -2
 c920_window460: x460 + x461 + x462 >= 1
 c921_window460: - x460 - x461 - x462 >= -2
 c922_window461: x461 + x462 + x463 >= 1
 c923_window461: - x461 - x462 - x463 >= -2
 c924_window462: x462 + x463 + x464 >= 1
 c925_window462: - x462 - x463 - x464 >= -2
 c926_window463: x463 + x464 + x465 >= 1
 c927_window463: - x463 - x464 - x465 >= -2
 c928_window464: x464 + x465 + x466 >= 1
 c929_window464: - x464 - x465 - x466 >= -2
 c930_window465: x465 + x466 + x467 >= 1
 c931_window465: - x465 - x466 - x467 >= -2
 c932_window466: x466 + x467 + x468 >= 1
 c933_window466: - x466 - x467 - x468 >= -2
 c934_window467: x467 + x468 + x469 >= 1
 c935_window467: - x467 - x468 - x469 >= -2
 c936_window468: x468 + x469 + x470 >= 1
 c937_window468: - x468 - x469 - x470 >= -2
 c938_window469: x469 + x470 + x471 >= 1
 c939_window469: - x469 - x470 - x471 >= -2
 c940_window470: x470 + x471 + x472 >= 1
 c941_window470: - x470 - x471 - x472 >= -2
 c942_window471: x471 + x472 + x473 >= 1
 c943_window471: - x471 - x472 - x473 >= -2
 c944_window472: x472 + x473 + x474 >= 1
 c945_window472: - x472 - x473 - x474 >= -2
 c946_window473: x473 + x474 + x475 >= 1
 c947_window473: - x473 - x474 - x475 >= -2
 c948_window474: x474 + x475 + x476 >= 1
 c949_window474: - x474 - x475 - x476 >= -2
 c950_window475: x475 + x476 + x477 >= 1
 c951_window475: - x475 - x476 - x477 >= -2
 c952_window476: x476 + x477 + x478 >= 1
 c953_window476: - x476 - x477 - x478 >= -2
 c954_window477: x477 + x478 + x479 >= 1
 c955_window477: - x477 - x478 - x479 >= -2
 c956_window478: x478 + x479 + x480 >= 1
 c957_window478: - x478 - x479 - x480 >= -2
 c958_window479: x479 + x480 + x481 >= 1
 c959_window479: - x479 - x480 - x481 >= -2
 c960_window480: x480 + x481 + x482 >= 1
 c961_window480: - x480 - x481 - x482 >= -2
 c962_window481: x481 + x482 + x483 >= 1
 c963_window481: - x481 - x482 - x483 >= -2
 c964_window482: x482 + x483 + x484 >= 1
 c965_window482: - x482 - x483 - x484 >= -2
 c966_window483: x483 + x484 + x485 >= 1
 c967_window483: - x483 - x484 - x485 >= -2
 c968_window484: x484 + x485 + x486 >= 1
 c969_window484: - x484 - x485 - x486 >= -2
 c970_window485: x485 + x486 + x487 >= 1
 c971_window485: - x485 - x486 - x487 >= -2
 c972_window486: x486 + x487 + x488 >= 1
 c973_window486: - x486 - x487 - x488 >= -2
 c974_window487: x487 + x488 + x489 >= 1
 c975_window487: - x487 - x488 - x489 >= -2
 c976_window488: x488 + x489 + x490 >= 1
 c977_window488: - x488 - x489 - x490 >= -2
 c978_window489: x489 + x490 + x491 >= 1
 c979_window489: - x489 - x490 - x491 >= -2
 c980_window490: x490 + x491 + x492 >= 1
 c981_window490: - x490 - x491 - x492 >= -2
 c982_window491: x491 + x492 + x493 >= 1
 c983_window491: - x491 - x492 - x493 >= -2
 c984_window492: x492 + x493 + x494 >= 1
 c985_window492: - x492 - x493 - x494 >= -2
 c986_window493: x493 + x494 + x495 >= 1
 c987_window493: - x493 - x494 - x495 >= -2
 c988_window494: x494 + x495 + x496 >= 1
 c989_window494: - x494 - x495 - x496 >= -2
 c990_window495: x495 + x496 + x497 >= 1
 c991_window495: - x495 - x496 - x497 >= -2
 c992_window496: x496 + x497 + x498 >= 1
 c993_window496: - x496 - x497 - x498 >= -2
 c994_window497: x497 + x498 + x499 >= 1
 c995_window497: - x497 - x498 - x499 >= -2
 c996_window498: x498 + x499 + x500 >= 1
 c997_window498: - x498 - x499 - x500 >= -2
 c998_window499: x499 + x500 + x501 >= 1
 c999_window499: - x499 - x500 - x501 >= -2
 c1000_window500: x500 + x501 + x502 >= 1
 c1001_window500: - x500 - x501 - x502 >= -2
 c1002_window501: x501 + x502 + x503 >= 1
 c1003_window501: - x501 - x502 - x503 >= -2
 c1004_window502: x502 + x503 + x504 >= 1
 c1005_window502: - x502 - x503 - x504 >= -2
 c1006_window503: x503 + x504 + x505 >= 1
 c1007_window503: - x503 - x504 - x505 >= -2
 c1008_window504: x504 + x505 + x506 >= 1
 c1009_window504: - x504 - x505 - x506 >= -2
 c1010_window505: x505 + x506 + x507 >= 1
 c1011_window505: - x505 - x506 - x507 >= -2
 c1012_window506: x506 + x507 + x508 >= 1
 c1013_window506: - x506 - x507 - x508 >= -2
 c1014_window507: x507 + x508 + x509 >= 1
 c1015_window507: - x507 - x508 - x509 >= -2
 c1016_window508: x508 + x509 + x510 >= 1
 c1017_window508: - x508 - x509 - x510 >= -2
 c1018_window509: x509 + x510 + x511 >= 1
 c1019_window509: - x509 - x510 - x511 >= -2
 c1020_window510: x510 + x511 + x512 >= 1
 c1021_window510: - x510 - x511 - x512 >= -2
 c1022_window511: x511 + x512 + x513 >= 1
 c1023_window511: - x511 - x512 - x513 >= -2
 c1024_window512: x512 + x513 + x514 >= 1
 c1025_window512: - x512 - x513 - x514 >= -2
 c1026_window513: x513 + x514 + x515 >= 1
 c1027_window513: - x513 - x514 - x515 >= -2
 c1028_window514: x514 + x515 + x516 >= 1
 c1029_window514: - x514 - x515 - x516 >= -2
 c1030_window515: x515 + x516 + x517 >= 1
 c1031_window515: - x515 - x516 - x517 >= -2
 c1032_window516: x516 + x517 + x518 >= 1
 c1033_window516: - x516 - x517 - x518 >= -2
 c1034_window517: x517 + x518 + x519 >= 1
 c1035_window517: - x517 - x518 - x519 >= -2
 c1036_window518: x518 + x519 + x520 >= 1
 c1037_window518: - x518 - x519 - x520 >= -2
 c1038_window519: x519 + x520 + x521 >= 1
 c1039_window519: - x519 - x520 - x521 >= -2
 c1040_window520: x520 + x521 + x522 >= 1
 c1041_window520: - x520 - x521 - x522 >= -2
 c1042_window521: x521 + x522 + x523 >= 1
 c1043_window521: - x521 - x522 - x523 >= -2
 c1044_window522: x522 + x523 + x524 >= 1
 c1045_window522: - x522 - x523 - x524 >= -2
 c1046_window523: x523 + x524 + x525 >= 1
 c1047_window523: - x523 - x524 - x525 >= -2
 c1048_window524: x524 + x525 + x526 >= 1
 c1049_window524: - x524 - x525 - x526 >= -2
 c1050_window525: x525 + x526 + x527 >= 1
 c1051_window525: - x525 - x526 - x527 >= -2
 c1052_window526: x526 + x527 + x528 >= 1
 c1053_window526: - x526 - x527 - x528 >= -2
 c1054_window527: x527 + x528 + x529 >= 1
 c1055_window527: - x527 - x528 - x529 >= -2
 c1056_window528: x528 + x529 + x530 >= 1
 c1057_window528: - x528 - x529 - x530 >= -2
 c1058_window529: x529 + x530 + x531 >= 1
 c1059_window529: - x529 - x530 - x531 >= -2
 c1060_window530: x530 + x531 + x532 >= 1
 c1061_window530: - x530 - x531 - x532 >= -2
 c1062_window531: x531 + x532 + x533 >= 1
 c1063_window531: - x531 - x532 - x533 >= -2
 c1064_window532: x532 + x533 + x534 >= 1
 c1065_window532: - x532 - x533 - x534 >= -2
 c1066_window533: x533 + x534 + x535 >= 1
 c1067_window533: - x533 - x534 - x535 >= -2
 c1068_window534: x534 + x535 + x536 >= 1
 c1069_window534: - x534 - x535 - x536 >= -2
 c1070_window535: x535 + x536 + x537 >= 1
 c1071_window535: - x535 - x536 - x537 >= -2
 c1072_window536: x536 + x537 + x538 >= 1
 c1073_window536: - x536 - x537 - x538 >= -2
 c1074_window537: x537 + x538 + x539 >= 1
 c1075_window537: - x537 - x538 - x539 >= -2
 c1076_window538: x538 + x539 + x540 >= 1
 c1077_window538: - x538 - x539 - x540 >= -2
 c1078_window539: x539 + x540 + x541 >= 1
 c1079_window539: - x539 - x540 - x541 >= -2
 c1080_window540: x540 + x541 + x542 >= 1
 c1081_window540: - x540 - x541 - x542 >= -2
 c1082_window541: x541 + x542 + x543 >= 1
 c1083_window541: - x541 - x542 - x543 >= -2
 c1084_window542: x542 + x543 + x544 >= 1
 c1085_window542: - x542 - x543 - x544 >= -2
 c1086_window543: x543 + x544 + x545 >= 1
 c1087_window543: - x543 - x544 - x545 >= -2
 c1088_window544: x544 + x545 + x546 >= 1
 c1089_window544: - x544 - x545 - x546 >= -2
 c1090_window545: x545 + x546 + x547 >= 1
 c1091_window545: - x545 - x546 - x547 >= -2
 c1092_window546: x546 + x547 + x548 >= 1
 c1093_window546: - x546 - x547 - x548 >= -2
 c1094_window547: x547 + x548 + x549 >= 1
 c1095_window547: - x547 - x548 - x549 >= -2
 c1096_window548: x548 + x549 + x550 >= 1
 c1097_window548: - x548 - x549 - x550 >= -2
 c1098_window549: x549 + x550 + x551 >= 1
 c1099_window549: - x549 - x550 - x551 >= -2
 c1100_window550: x550 + x551 + x552 >= 1
 c1101_window550: - x550 - x551 - x552 >= -2
 c1102_window551: x551 + x552 + x553 >= 1
 c1103_window551: - x551 - x552 - x553 >= -2
 c1104_window552: x552 + x553 + x554 >= 1
 c1105_window552: - x552 - x553 - x554 >= -2
 c1106_window553: x553 + x554 + x555 >= 1
 c1107_window553: - x553 - x554 - x555 >= -2
 c1108_window554: x554 + x555 + x556 >= 1
 c1109_window554: - x554 - x555 - x556 >= -2
 c1110_window555: x555 + x556 + x557 >= 1
 c1111_window555: - x555 - x556 - x557 >= -2
 c1112_window556: x556 + x557 + x558 >= 1
 c1113_window556: - x556 - x557 - x558 >= -2
 c1114_window557: x557 + x558 + x559 >= 1
 c1115_window557: - x557 - x558 - x559 >= -2
 c1116_window558: x558 + x559 + x560 >= 1
 c1117_window558: - x558 - x559 - x560 >= -2
 c1118_window559: x559 + x560 + x561 >= 1
 c1119_window559: - x559 - x560 - x561 >= -2
 c1120_window560: x560 + x561 + x562 >= 1
 c1121_window560: - x560 - x561 - x562 >= -2
 c1122_window561: x561 + x562 + x563 >= 1
 c1123_window561: - x561 - x562 - x563 >= -2
 c1124_window562: x562 + x563 + x564 >= 1
 c1125_window562: - x562 - x563 - x564 >= -2
 c1126_window563: x563 + x564 + x565 >= 1
 c1127_window563: - x563 - x564 - x565 >= -2
 c1128_window564: x564 + x565 + x566 >= 1
 c1129_window564: - x564 - x565 - x566 >= -2
 c1130_window565: x565 + x566 + x567 >= 1
 c1131_window565: - x565 - x566 - x567 >= -2
 c1132_window566: x566 + x567 + x568 >= 1
 c1133_window566: - x566 - x567 - x568 >= -2
 c1134_window567: x567 + x568 + x569 >= 1
 c1135_window567: - x567 - x568 - x569 >= -2
 c1136_window568: x568 + x569 + x570 >= 1
 c1137_window568: - x568 - x569 - x570 >= -2
 c1138_window569: x569 + x570 + x571 >= 1
 c1139_window569: - x569 - x570 - x571 >= -2
 c1140_window570: x570 + x571 + x572 >= 1
 c1141_window570: - x570 - x571 - x572 >= -2
 c1142_window571: x571 + x572 + x573 >= 1
 c1143_window571: - x571 - x572 - x573 >= -2
 c1144_window572: x572 + x573 + x574 >= 1
 c1145_window572: - x572 - x573 - x574 >= -2
 c1146_window573: x573 + x574 + x575 >= 1
 c1147_window573: - x573 - x574 - x575 >= -2
 c1148_window574: x574 + x575 + x576 >= 1
 c1149_window574: - x574 - x575 - x576 >= -2
 c1150_window575: x575 + x576 + x577 >= 1
 c1151_window575: - x575 - x576 - x577 >= -2
 c1152_window576: x576 + x577 + x578 >= 1
 c1153_window576: - x576 - x577 - x578 >= -2
 c1154_window577: x577 + x578 + x579 >= 1
 c1155_window577: - x577 - x578 - x579 >= -2
 c1156_window578: x578 + x579 + x580 >= 1
 c1157_window578: - x578 - x579 - x580 >= -2
 c1158_window579: x579 + x580 + x581 >= 1
 c1159_window579: - x579 - x580 - x581 >= -2
 c1160_window580: x580 + x581 + x582 >= 1
 c1161_window580: - x580 - x581 - x582 >= -2
 c1162_window581: x581 + x582 + x583 >= 1
 c1163_window581: - x581 - x582 - x583 >= -2
 c1164_window582: x582 + x583 + x584 >= 1
 c1165_window582: - x582 - x583 - x584 >= -2
 c1166_window583: x583 + x584 + x585 >= 1
 c1167_window583: - x583 - x584 - x585 >= -2
 c1168_window584: x584 + x585 + x586 >= 1
 c1169_window584: - x584 - x585 - x586 >= -2
 c1170_window585: x585 + x586 + x587 >= 1
 c1171_window585: - x585 - x586 - x587 >= -2
 c1172_window586: x586 + x587 + x588 >= 1
 c1173_window586: - x586 - x587 - x588 >= -2
 c1174_window587: x587 + x588 + x589 >= 1
 c1175_window587: - x587 - x588 - x589 >= -2
 c1176_window588: x588 + x589 + x590 >= 1
 c1177_window588: - x588 - x589 - x590 >= -2
 c1178_window589: x589 + x590 + x591 >= 1
 c1179_window589: - x589 - x590 - x591 >= -2
 c1180_window590: x590 + x591 + x592 >= 1
 c1181_window590: - x590 - x591 - x592 >= -2
 c1182_window591: x591 + x592 + x593 >= 1
 c1183_window591: - x591 - x592 - x593 >= -2
 c1184_window592: x592 + x593 + x594 >= 1
 c1185_window592: - x592 - x593 - x594 >= -2
 c1186_window593: x593 + x594 + x595 >= 1
 c1187_window593: - x593 - x594 - x595 >= -2
 c1188_window594: x594 + x595 + x596 >= 1
 c1189_window594: - x594 - x595 - x596 >= -2
 c1190_window595: x595 + x596 + x597 >= 1
 c1191_window595: - x595 - x596 - x597 >= -2
 c1192_window596: x596 + x597 + x598 >= 1
 c1193_window596: - x596 - x597 - x598 >= -2
 c1194_window597: x597 + x598 + x599 >= 1
 c1195_window597: - x597 - x598 - x599 >= -2
 c1196_window598: x598 + x599 + x600 >= 1
 c1197_window598: - x598 - x599 - x600 >= -2
 c1198_window599: x599 + x600 + x601 >= 1
 c1199_window599: - x599 - x600 - x601 >= -2
 c1200_window600: x600 + x601 + x602 >= 1
 c1201_window600: - x600 - x601 - x602 >= -2
 c1202_window601: x601 + x602 + x603 >= 1
 c1203_window601: - x601 - x602 - x603 >= -2
 c1204_window602: x602 + x603 + x604 >= 1
 c1205_window602: - x602 - x603 - x604 >= -2
 c1206_window603: x603 + x604 + x605 >= 1
 c1207_window603: - x603 - x604 - x605 >= -2
 c1208_window604: x604 + x605 + x606 >= 1
 c1209_window604: - x604 - x605 - x606 >= -2
 c1210_window605: x605 + x606 + x607 >= 1
 c1211_window605: - x605 - x606 - x607 >= -2
 c1212_window606: x606 + x607 + x608 >= 1
 c1213_window606: - x606 - x607 - x608 >= -2
 c1214_window607: x607 + x608 + x609 >= 1
 c1215_window607: - x607 - x608 - x609 >= -2
 c1216_window608: x608 + x609 + x610 >= 1
 c1217_window608: - x608 - x609 - x610 >= -2
 c1218_window609: x609 + x610 + x611 >= 1
 c1219_window609: - x609 - x610 - x611 >= -2
 c1220_window610: x610 + x611 + x612 >= 1
 c1221_window610: - x610 - x611 - x612 >= -2
 c1222_window611: x611 + x612 + x613 >= 1
 c1223_window611: - x611 - x612 - x613 >= -2
 c1224_window612: x612 + x613 + x614 >= 1
 c1225_window612: - x612 - x613 - x614 >= -2
 c1226_window613: x613 + x614 + x615 >= 1
 c1227_window613: - x613 - x614 - x615 >= -2
 c1228_window614: x614 + x615 + x616 >= 1
 c1229_window614: - x614 - x615 - x616 >= -2
 c1230_window615: x615 + x616 + x617 >= 1
 c1231_window615: - x615 - x616 - x617 >= -2
 c1232_window616: x616 + x617 + x618 >= 1
 c1233_window616: - x616 - x617 - x618 >= -2
 c1234_window617: x617 + x618 + x619 >= 1
 c1235_window617: - x617 - x618 - x619 >= -2
 c1236_window618: x618 + x619 + x620 >= 1
 c1237_window618: - x618 - x619 - x620 >= -2
 c1238_window619: x619 + x620 + x621 >= 1
 c1239_window619: - x619 - x620 - x621 >= -2
 c1240_window620: x620 + x621 + x622 >= 1
 c1241_window620: - x620 - x621 - x622 >= -2
 c1242_window621: x621 + x622 + x623 >= 1
 c1243_window621: - x621 - x622 - x623 >= -2
 c1244_window622: x622 + x623 + x624 >= 1
 c1245_window622: - x622 - x623 - x624 >= -2
 c1246_window623: x623 + x624 + x625 >= 1
 c1247_window623: - x623 - x624 - x625 >= -2
 c1248_window624: x624 + x625 + x626 >= 1
 c1249_window624: - x624 - x625 - x626 >= -2
 c1250_window625: x625 + x626 + x627 >= 1
 c1251_window625: - x625 - x626 - x627 >= -2
 c1252_window626: x626 + x627 + x628 >= 1
 c1253_window626: - x626 - x627 - x628 >= -2
 c1254_window627: x627 + x628 + x629 >= 1
 c1255_window627: - x627 - x628 - x629 >= -2
 c1256_window628: x628 + x629 + x630 >= 1
 c1257_window628: - x628 - x629 - x630 >= -2
 c1258_window629: x629 + x630 + x631 >= 1
 c1259_window629: - x629 - x630 - x631 >= -2
 c1260_window630: x630 + x631 + x632 >= 1
 c1261_window630: - x630 - x631 - x632 >= -2
 c1262_window631: x631 + x632 + x633 >= 1
 c1263_window631: - x631 - x632 - x633 >= -2
 c1264_window632: x632 + x633 + x634 >= 1
 c1265_window632: - x632 - x633 - x634 >= -2
 c1266_window633: x633 + x634 + x635 >= 1
 c1267_window633: - x633 - x634 - x635 >= -2
 c1268_window634: x634 + x635 + x636 >= 1
 c1269_window634: - x634 - x635 - x636 >= -2
 c1270_window635: x635 + x636 + x637 >= 1
 c1271_window635: - x635 - x636 - x637 >= -2
 c1272_window636: x636 + x637 + x638 >= 1
 c1273_window636: - x636 - x637 - x638 >= -2
 c1274_window637: x637 + x638 + x639 >= 1
 c1275_window637: - x637 - x638 - x639 >= -2
 c1276_window638: x638 + x639 + x640 >= 1
 c1277_window638: - x638 - x639 - x640 >= -2
 c1278_window639: x639 + x640 + x641 >= 1
 c1279_window639: - x639 - x640 - x641 >= -2
 c1280_window640: x640 + x641 + x642 >= 1
 c1281_window640: - x640 - x641 - x642 >= -2
 c1282_window641: x641 + x642 + x643 >= 1
 c1283_window641: - x641 - x642 - x643 >= -2
 c1284_window642: x642 + x643 + x644 >= 1
 c1285_window642: - x642 - x643 - x644 >= -2
 c1286_window643: x643 + x644 + x645 >= 1
 c1287_window643: - x643 - x644 - x645 >= -2
 c1288_window644: x644 + x645 + x646 >= 1
 c1289_window644: - x644 - x645 - x646 >= -2
 c1290_window645: x645 + x646 + x647 >= 1
 c1291_window645: - x645 - x646 - x647 >= -2
 c1292_window646: x646 + x647 + x648 >= 1
 c1293_window646: - x646 - x647 - x648 >= -2
 c1294_window647: x647 + x648 + x649 >= 1
 c1295_window647: - x647 - x648 - x649 >= -2
 c1296_window648: x648 + x649 + x650 >= 1
 c1297_window648: - x648 - x649 - x650 >= -2
 c1298_window649: x649 + x650 + x651 >= 1
 c1299_window649: - x649 - x650 - x651 >= -2
 c1300_window650: x650 + x651 + x652 >= 1
 c1301_window650: - x650 - x651 - x652 >= -2
 c1302_window651: x651 + x652 + x653 >= 1
 c1303_window651: - x651 - x652 - x653 >= -2
 c1304_window652: x652 + x653 + x654 >= 1
 c1305_window652: - x652 - x653 - x654 >= -2
 c1306_window653: x653 + x654 + x655 >= 1
 c1307_window653: - x653 - x654 - x655 >= -2
 c1308_window654: x654 + x655 + x656 >= 1
 c1309_window654: - x654 - x655 - x656 >= -2
 c1310_window655: x655 + x656 + x657 >= 1
 c1311_window655: - x655 - x656 - x657 >= -2
 c1312_window656: x656 + x657 + x658 >= 1
 c1313_window656: - x656 - x657 - x658 >= -2
 c1314_window657: x657 + x658 + x659 >= 1
 c1315_window657: - x657 - x658 - x659 >= -2
 c1316_window658: x658 + x659 + x660 >= 1
 c1317_window658: - x658 - x659 - x660 >= -2
 c1318_window659: x659 + x660 + x661 >= 1
 c1319_window659: - x659 - x660 - x661 >= -2
 c1320_window660: x660 + x661 + x662 >= 1
 c1321_window660: - x660 - x661 - x662 >= -2
 c1322_window661: x661 + x662 + x663 >= 1
 c1323_window661: - x661 - x662 - x663 >= -2
 c1324_window662: x662 + x663 + x664 >= 1
 c1325_window662: - x662 - x663 - x664 >= -2
 c1326_window663: x663 + x664 + x665 >= 1
 c1327_window663: - x663 - x664 - x665 >= -2
 c1328_window664: x664 + x665 + x666 >= 1
 c1329_window664: - x664 - x665 - x666 >= -2
 c1330_window665: x665 + x666 + x667 >= 1
 c1331_window665: - x665 - x666 - x667 >= -2
 c1332_window666: x666 + x667 + x668 >= 1
 c1333_window666: - x666 - x667 - x668 >= -2
 c1334_window667: x667 + x668 + x669 >= 1
 c1335_window667: - x667 - x668 - x669 >= -2
 c1336_window668: x668 + x669 + x670 >= 1
 c1337_window668: - x668 - x669 - x670 >= -2
 c1338_window669: x669 + x670 + x671 >= 1
 c1339_window669: - x669 - x670 - x671 >= -2
 c1340_window670: x670 + x671 + x672 >= 1
 c1341_window670: - x670 - x671 - x672 >= -2
 c1342_window671: x671 + x672 + x673 >= 1
 c1343_window671: - x671 - x672 - x673 >= -2
 c1344_window672: x672 + x673 + x674 >= 1
 c1345_window672: - x672 - x673 - x674 >= -2
 c1346_window673: x673 + x674 + x675 >= 1
 c1347_window673: - x673 - x674 - x675 >= -2
 c1348_window674: x674 + x675 + x676 >= 1
 c1349_window674: - x674 - x675 - x676 >= -2
 c1350_window675: x675 + x676 + x677 >= 1
 c1351_window675: - x675 - x676 - x677 >= -2
 c1352_window676: x676 + x677 + x678 >= 1
 c1353_window676: - x676 - x677 - x678 >= -2
 c1354_window677: x677 + x678 + x679 >= 1
 c1355_window677: - x677 - x678 - x679 >= -2
 c1356_window678: x678 + x679 + x680 >= 1
 c1357_window678: - x678 - x679 - x680 >= -2
 c1358_window679: x679 + x680 + x681 >= 1
 c1359_window679: - x679 - x680 - x681 >= -2
 c1360_window680: x680 + x681 + x682 >= 1
 c1361_window680: - x680 - x681 - x682 >= -2
 c1362_window681: x681 + x682 + x683 >= 1
 c1363_window681: - x681 - x682 - x683 >= -2
 c1364_window682: x682 + x683 + x684 >= 1
 c1365_window682: - x682 - x683 - x684 >= -2
 c1366_window683: x683 + x684 + x685 >= 1
 c1367_window683: - x683 - x684 - x685 >= -2
 c1368_window684: x684 + x685 + x686 >= 1
 c1369_window684: - x684 - x685 - x686 >= -2
 c1370_window685: x685 + x686 + x687 >= 1
 c1371_window685: - x685 - x686 - x687 >= -2
 c1372_window686: x686 + x687 + x688 >= 1
 c1373_window686: - x686 - x687 - x688 >= -2
 c1374_window687: x687 + x688 + x689 >= 1
 c1375_window687: - x687 - x688 - x689 >= -2
 c1376_window688: x688 + x689 + x690 >= 1
 c1377_window688: - x688 - x689 - x690 >= -2
 c1378_window689: x689 + x690 + x691 >= 1
 c1379_window689: - x689 - x690 - x691 >= -2
 c1380_window690: x690 + x691 + x692 >= 1
 c1381_window690: - x690 - x691 - x692 >= -2
 c1382_window691: x691 + x692 + x693 >= 1
 c1383_window691: - x691 - x692 - x693 >= -2
 c1384_window692: x692 + x693 + x694 >= 1
 c1385_window692: - x692 - x693 - x694 >= -2
 c1386_window693: x693 + x694 + x695 >= 1
 c1387_window693: - x693 - x694 - x695 >= -2
 c1388_window694: x694 + x695 + x696 >= 1
 c1389_window694: - x694 - x695 - x696 >= -2
 c1390_window695: x695 + x696 + x697 >= 1
 c1391_window695: - x695 - x696 - x697 >= -2
 c1392_window696: x696 + x697 + x698 >= 1
 c1393_window696: - x696 - x697 - x698 >= -2
 c1394_window697: x697 + x698 + x699 >= 1
 c1395_window697: - x697 - x698 - x699 >= -2
 c1396_window698: x698 + x699 + x700 >= 1
 c1397_window698: - x698 - x699 - x700 >= -2
 c1398_window699: x699 + x700 + x701 >= 1
 c1399_window699: - x699 - x700 - x701 >= -2
 c1400_window700: x700 + x701 + x702 >= 1
 c1401_window700: - x700 - x701 - x702 >= -2
 c1402_window701: x701 + x702 + x703 >= 1
 c1403_window701: - x701 - x702 - x703 >= -2
 c1404_window702: x702 + x703 + x704 >= 1
 c1405_window702: - x702 - x703 - x704 >= -2
 c1406_window703: x703 + x704 + x705 >= 1
 c1407_window703: - x703 - x704 - x705 >= -2
 c1408_window704: x704 + x705 + x706 >= 1
 c1409_window704: - x704 - x705 - x706 >= -2
 c1410_window705: x705 + x706 + x707 >= 1
 c1411_window705: - x705 - x706 - x707 >= -2
 c1412_window706: x706 + x707 + x708 >= 1
 c1413_window706: - x706 - x707 - x708 >= -2
 c1414_window707: x707 + x708 + x709 >= 1
 c1415_window707: - x707 - x708 - x709 >= -2
 c1416_window708: x708 + x709 + x710 >= 1
 c1417_window708: - x708 - x709 - x710 >= -2
 c1418_window709: x709 + x710 + x711 >= 1
 c1419_window709: - x709 - x710 - x711 >= -2
 c1420_window710: x710 + x711 + x712 >= 1
 c1421_window710: - x710 - x711 - x712 >= -2
 c1422_window711: x711 + x712 + x713 >= 1
 c1423_window711: - x711 - x712 - x713 >= -2
 c1424_window712: x712 + x713 + x714 >= 1
 c1425_window712: - x712 - x713 - x714 >= -2
 c1426_window713: x713 + x714 + x715 >= 1
 c1427_window713: - x713 - x714 - x715 >= -2
 c1428_window714: x714 + x715 + x716 >= 1
 c1429_window714: - x714 - x715 - x716 >= -2
 c1430_window715: x715 + x716 + x717 >= 1
 c1431_window715: - x715 - x716 - x717 >= -2
 c1432_window716: x716 + x717 + x718 >= 1
 c1433_window716: - x716 - x717 - x718 >= -2
 c1434_window717: x717 + x718 + x719 >= 1
 c1435_window717: - x717 - x718 - x719 >= -2
 c1436_window718: x718 + x719 + x720 >= 1
 c1437_window718: - x718 - x719 - x720 >= -2
 c1438_window719: x719 + x720 + x721 >= 1
 c1439_window719: - x719 - x720 - x721 >= -2
 c1440_window720: x720 + x721 + x722 >= 1
 c1441_window720: - x720 - x721 - x722 >= -2
 c1442_window721: x721 + x722 + x723 >= 1
 c1443_window721: - x721 - x722 - x723 >= -2
 c1444_window722: x722 + x723 + x724 >= 1
 c1445_window722: - x722 - x723 - x724 >= -2
 c1446_window723: x723 + x724 + x725 >= 1
 c1447_window723: - x723 - x724 - x725 >= -2
 c1448_window724: x724 + x725 + x726 >= 1
 c1449_window724: - x724 - x725 - x726 >= -2
 c1450_window725: x725 + x726 + x727 >= 1
 c1451_window725: - x725 - x726 - x727 >= -2
 c1452_window726: x726 + x727 + x728 >= 1
 c1453_window726: - x726 - x727 - x728 >= -2
 c1454_window727: x727 + x728 + x729 >= 1
 c1455_window727: - x727 - x728 - x729 >= -2
 c1456_window728: x728 + x729 + x730 >= 1
 c1457_window728: - x728 - x729 - x730 >= -2
 c1458_window729: x729 + x730 + x731 >= 1
 c1459_window729: - x729 - x730 - x731 >= -2
 c1460_window730: x730 + x731 + x732 >= 1
 c1461_window730: - x730 - x731 - x732 >= -2
 c1462_window731: x731 + x732 + x733 >= 1
 c1463_window731: - x731 - x732 - x733 >= -2
 c1464_window732: x732 + x733 + x734 >= 1
 c1465_window732: - x732 - x733 - x734 >= -2
 c1466_window733: x733 + x734 + x735 >= 1
 c1467_window733: - x733 - x734 - x735 >= -2
 c1468_window734: x734 + x735 + x736 >= 1
 c1469_window734: - x734 - x735 - x736 >= -2
 c1470_window735: x735 + x736 + x737 >= 1
 c1471_window735: - x735 - x736 - x737 >= -2
 c1472_window736: x736 + x737 + x738 >= 1
 c1473_window736: - x736 - x737 - x738 >= -2
 c1474_window737: x737 + x738 + x739 >= 1
 c1475_window737: - x737 - x738 - x739 >= -2
 c1476_window738: x738 + x739 + x740 >= 1
 c1477_window738: - x738 - x739 - x740 >= -2
 c1478_window739: x739 + x740 + x741 >= 1
 c1479_window739: - x739 - x740 - x741 >= -2
 c1480_window740: x740 + x741 + x742 >= 1
 c1481_window740: - x740 - x741 - x742 >= -2
 c1482_window741: x741 + x742 + x743 >= 1
 c1483_window741: - x741 - x742 - x743 >= -2
 c1484_window742: x742 + x743 + x744 >= 1
 c1485_window742: - x742 - x743 - x744 >= -2
 c1486_window743: x743 + x744 + x745 >= 1
 c1487_window743: - x743 - x744 - x745 >= -2
 c1488_window744: x744 + x745 + x746 >= 1
 c1489_window744: - x744 - x745 - x746 >= -2
 c1490_window745: x745 + x746 + x747 >= 1
 c1491_window745: - x745 - x746 - x747 >= -2
 c1492_window746: x746 + x747 + x748 >= 1
 c1493_window746: - x746 - x747 - x748 >= -2
 c1494_window747: x747 + x748 + x749 >= 1
 c1495_window747: - x747 - x748 - x749 >= -2
 c1496_window748: x748 + x749 + x750 >= 1
 c1497_window748: - x748 - x749 - x750 >= -2
 c1498_window749: x749 + x750 + x751 >= 1
 c1499_window749: - x749 - x750 - x751 >= -2
 c1500_window750: x750 + x751 + x752 >= 1
 c1501_window750: - x750 - x751 - x752 >= -2
 c1502_window751: x751 + x752 + x753 >= 1
 c1503_window751: - x751 - x752 - x753 >= -2
 c1504_window752: x752 + x753 + x754 >= 1
 c1505_window752: - x752 - x753 - x754 >= -2
 c1506_window753: x753 + x754 + x755 >= 1
 c1507_window753: - x753 - x754 - x755 >= -2
 c1508_window754: x754 + x755 + x756 >= 1
 c1509_window754: - x754 - x755 - x756 >= -2
 c1510_window755: x755 + x756 + x757 >= 1
 c1511_window755: - x755 - x756 - x757 >= -2
 c1512_window756: x756 + x757 + x758 >= 1
 c1513_window756: - x756 - x757 - x758 >= -2
 c1514_window757: x757 + x758 + x759 >= 1
 c1515_window757: - x757 - x758 - x759 >= -2
 c1516_window758: x758 + x759 + x760 >= 1
 c1517_window758: - x758 - x759 - x760 >= -2
 c1518_window759: x759 + x760 + x761 >= 1
 c1519_window759: - x759 - x760 - x761 >= -2
 c1520_window760: x760 + x761 + x762 >= 1
 c1521_window760: - x760 - x761 - x762 >= -2
 c1522_window761: x761 + x762 + x763 >= 1
 c1523_window761: - x761 - x762 - x763 >= -2
 c1524_window762: x762 + x763 + x764 >= 1
 c1525_window762: - x762 - x763 - x764 >= -2
 c1526_window763: x763 + x764 + x765 >= 1
 c1527_window763: - x763 - x764 - x765 >= -2
 c1528_window764: x764 + x765 + x766 >= 1
 c1529_window764: - x764 - x765 - x766 >= -2
 c1530_window765: x765 + x766 + x767 >= 1
 c1531_window765: - x765 - x766 - x767 >= -2
 c1532_window766: x766 + x767 + x768 >= 1
 c1533_window766: - x766 - x767 - x768 >= -2
 c1534_window767: x767 + x768 + x769 >= 1
 c1535_window767: - x767 - x768 - x769 >= -2
 c1536_window768: x768 + x769 + x770 >= 1
 c1537_window768: - x768 - x769 - x770 >= -2
 c1538_window769: x769 + x770 + x771 >= 1
 c1539_window769: - x769 - x770 - x771 >= -2
 c1540_window770: x770 + x771 + x772 >= 1
 c1541_window770: - x770 - x771 - x772 >= -2
 c1542_window771: x771 + x772 + x773 >= 1
 c1543_window771: - x771 - x772 - x773 >= -2
 c1544_window772: x772 + x773 + x774 >= 1
 c1545_window772: - x772 - x773 - x774 >= -2
 c1546_window773: x773 + x774 + x775 >= 1
 c1547_window773: - x773 - x774 - x775 >= -2
 c1548_window774: x774 + x775 + x776 >= 1
 c1549_window774: - x774 - x775 - x776 >= -2
 c1550_window775: x775 + x776 + x777 >= 1
 c1551_window775: - x775 - x776 - x777 >= -2
 c1552_window776: x776 + x777 + x778 >= 1
 c1553_window776: - x776 - x777 - x778 >= -2
 c1554_window777: x777 + x778 + x779 >= 1
 c1555_window777: - x777 - x778 - x779 >= -2
 c1556_window778: x778 + x779 + x780 >= 1
 c1557_window778: - x778 - x779 - x780 >= -2
 c1558_window779: x779 + x780 + x781 >= 1
 c1559_window779: - x779 - x780 - x781 >= -2
 c1560_window780: x780 + x781 + x782 >= 1
 c1561_window780: - x780 - x781 - x782 >= -2
 c1562_window781: x781 + x782 + x783 >= 1
 c1563_window781: - x781 - x782 - x783 >= -2
 c1564_window782: x782 + x783 + x784 >= 1
 c1565_window782: - x782 - x783 - x784 >= -2
 c1566_window783: x783 + x784 + x785 >= 1
 c1567_window783: - x783 - x784 - x785 >= -2
 c1568_window784: x784 + x785 + x786 >= 1
 c1569_window784: - x784 - x785 - x786 >= -2
 c1570_window785: x785 + x786 + x787 >= 1
 c1571_window785: - x785 - x786 - x787 >= -2
 c1572_window786: x786 + x787 + x788 >= 1
 c1573_window786: - x786 - x787 - x788 >= -2
 c1574_window787: x787 + x788 + x789 >= 1
 c1575_window787: - x787 - x788 - x789 >= -2
 c1576_window788: x788 + x789 + x790 >= 1
 c1577_window788: - x788 - x789 - x790 >= -2
 c1578_window789: x789 + x790 + x791 >= 1
 c1579_window789: - x789 - x790 - x791 >= -2
 c1580_window790: x790 + x791 + x792 >= 1
 c1581_window790: - x790 - x791 - x792 >= -2
 c1582_window791: x791 + x792 + x793 >= 1
 c1583_window791: - x791 - x792 - x793 >= -2
 c1584_window792: x792 + x793 + x794 >= 1
 c1585_window792: - x792 - x793 - x794 >= -2
 c1586_window793: x793 + x794 + x795 >= 1
 c1587_window793: - x793 - x794 - x795 >= -2
 c1588_window794: x794 + x795 + x796 >= 1
 c1589_window794: - x794 - x795 - x796 >= -2
 c1590_window795: x795 + x796 + x797 >= 1
 c1591_window795: - x795 - x796 - x797 >= -2
 c1592_window796: x796 + x797 + x798 >= 1
 c1593_window796: - x796 - x797 - x798 >= -2
 c1594_window797: x797 + x798 + x799 >= 1
 c1595_window797: - x797 - x798 - x799 >= -2
 c1596_window798: x798 + x799 + x800 >= 1
 c1597_window798: - x798 - x799 - x800 >= -2
 c1598_window799: x799 + x800 + x801 >= 1
 c1599_window799: - x799 - x800 - x801 >= -2
 c1600_window800: x800 + x801 + x802 >= 1
 c1601_window800: - x800 - x801 - x802 >= -2
 c1602_window801: x801 + x802 + x803 >= 1
 c1603_window801: - x801 - x802 - x803 >= -2
 c1604_window802: x802 + x803 + x804 >= 1
 c1605_window802: - x802 - x803 - x804 >= -2
 c1606_window803: x803 + x804 + x805 >= 1
 c1607_window803: - x803 - x804 - x805 >= -2
 c1608_window804: x804 + x805 + x806 >= 1
 c1609_window804: - x804 - x805 - x806 >= -2
 c1610_window805: x805 + x806 + x807 >= 1
 c1611_window805: - x805 - x806 - x807 >= -2
 c1612_window806: x806 + x807 + x808 >= 1
 c1613_window806: - x806 - x807 - x808 >= -2
 c1614_window807: x807 + x808 + x809 >= 1
 c1615_window807: - x807 - x808 - x809 >= -2
 c1616_window808: x808 + x809 + x810 >= 1
 c1617_window808: - x808 - x809 - x810 >= -2
 c1618_window809: x809 + x810 + x811 >= 1
 c1619_window809: - x809 - x810 - x811 >= -2
 c1620_window810: x810 + x811 + x812 >= 1
 c1621_window810: - x810 - x811 - x812 >= -2
 c1622_window811: x811 + x812 + x813 >= 1
 c1623_window811: - x811 - x812 - x813 >= -2
 c1624_window812: x812 + x813 + x814 >= 1
 c1625_window812: - x812 - x813 - x814 >= -2
 c1626_window813: x813 + x814 + x815 >= 1
 c1627_window813: - x813 - x814 - x815 >= -2
 c1628_window814: x814 + x815 + x816 >= 1
 c1629_window814: - x814 - x815 - x816 >= -2
 c1630_window815: x815 + x816 + x817 >= 1
 c1631_window815: - x815 - x816 - x817 >= -2
 c1632_window816: x816 + x817 + x818 >= 1
 c1633_window816: - x816 - x817 - x818 >= -2
 c1634_window817: x817 + x818 + x819 >= 1
 c1635_window817: - x817 - x818 - x819 >= -2
 c1636_window818: x818 + x819 + x820 >= 1
 c1637_window818: - x818 - x819 - x820 >= -2
 c1638_window819: x819 + x820 + x821 >= 1
 c1639_window819: - x819 - x820 - x821 >= -2
 c1640_window820: x820 + x821 + x822 >= 1
 c1641_window820: - x820 - x821 - x822 >= -2
 c1642_window821: x821 + x822 + x823 >= 1
 c1643_window821: - x821 - x822 - x823 >= -2
 c1644_window822: x822 + x823 + x824 >= 1
 c1645_window822: - x822 - x823 - x824 >= -2
 c1646_window823: x823 + x824 + x825 >= 1
 c1647_window823: - x823 - x824 - x825 >= -2
 c1648_window824: x824 + x825 + x826 >= 1
 c1649_window824: - x824 - x825 - x826 >= -2
 c1650_window825: x825 + x826 + x827 >= 1
 c1651_window825: - x825 - x826 - x827 >= -2
 c1652_window826: x826 + x827 + x828 >= 1
 c1653_window826: - x826 - x827 - x828 >= -2
 c1654_window827: x827 + x828 + x829 >= 1
 c1655_window827: - x827 - x828 - x829 >= -2
 c1656_window828: x828 + x829 + x830 >= 1
 c1657_window828: - x828 - x829 - x830 >= -2
 c1658_window829: x829 + x830 + x831 >= 1
 c1659_window829: - x829 - x830 - x831 >= -2
 c1660_window830: x830 + x831 + x832 >= 1
 c1661_window830: - x830 - x831 - x832 >= -2
 c1662_window831: x831 + x832 + x833 >= 1
 c1663_window831: - x831 - x832 - x833 >= -2
 c1664_window832: x832 + x833 + x834 >= 1
 c1665_window832: - x832 - x833 - x834 >= -2
 c1666_window833: x833 + x834 + x835 >= 1
 c1667_window833: - x833 - x834 - x835 >= -2
 c1668_window834: x834 + x835 + x836 >= 1
 c1669_window834: - x834 - x835 - x836 >= -2
 c1670_window835: x835 + x836 + x837 >= 1
 c1671_window835: - x835 - x836 - x837 >= -2
 c1672_window836: x836 + x837 + x838 >= 1
 c1673_window836: - x836 - x837 - x838 >= -2
 c1674_window837: x837 + x838 + x839 >= 1
 c1675_window837: - x837 - x838 - x839 >= -2
 c1676_window838: x838 + x839 + x840 >= 1
 c1677_window838: - x838 - x839 - x840 >= -2
 c1678_window839: x839 + x840 + x841 >= 1
 c1679_window839: - x839 - x840 - x841 >= -2
 c1680_window840: x840 + x841 + x842 >= 1
 c1681_window840: - x840 - x841 - x842 >= -2
 c1682_window841: x841 + x842 + x843 >= 1
 c1683_window841: - x841 - x842 - x843 >= -2
 c1684_window842: x842 + x843 + x844 >= 1
 c1685_window842: - x842 - x843 - x844 >= -2
 c1686_window843: x843 + x844 + x845 >= 1
 c1687_window843: - x843 - x844 - x845 >= -2
 c1688_window844: x844 + x845 + x846 >= 1
 c1689_window844: - x844 - x845 - x846 >= -2
 c1690_window845: x845 + x846 + x847 >= 1
 c1691_window845: - x845 - x846 - x847 >= -2
 c1692_window846: x846 + x847 + x848 >= 1
 c1693_window846: - x846 - x847 - x848 >= -2
 c1694_window847: x847 + x848 + x849 >= 1
 c1695_window847: - x847 - x848 - x849 >= -2
 c1696_window848: x848 + x849 + x850 >= 1
 c1697_window848: - x848 - x849 - x850 >= -2
 c1698_window849: x849 + x850 + x851 >= 1
 c1699_window849: - x849 - x850 - x851 >= -2
 c1700_window850: x850 + x851 + x852 >= 1
 c1701_window850: - x850 - x851 - x852 >= -2
 c1702_window851: x851 + x852 + x853 >= 1
 c1703_window851: - x851 - x852 - x853 >= -2
 c1704_window852: x852 + x853 + x854 >= 1
 c1705_window852: - x852 - x853 - x854 >= -2
 c1706_window853: x853 + x854 + x855 >= 1
 c1707_window853: - x853 - x854 - x855 >= -2
 c1708_window854: x854 + x855 + x856 >= 1
 c1709_window854: - x854 - x855 - x856 >= -2
 c1710_window855: x855 + x856 + x857 >= 1
 c1711_window855: - x855 - x856 - x857 >= -2
 c1712_window856: x856 + x857 + x858 >= 1
 c1713_window856: - x856 - x857 - x858 >= -2
 c1714_window857: x857 + x858 + x859 >= 1
 c1715_window857: - x857 - x858 - x859 >= -2
 c1716_window858: x858 + x859 + x860 >= 1
 c1717_window858: - x858 - x859 - x860 >= -2
 c1718_window859: x859 + x860 + x861 >= 1
 c1719_window859: - x859 - x860 - x861 >= -2
 c1720_window860: x860 + x861 + x862 >= 1
 c1721_window860: - x860 - x861 - x862 >= -2
 c1722_window861: x861 + x862 + x863 >= 1
 c1723_window861: - x861 - x862 - x863 >= -2
 c1724_window862: x862 + x863 + x864 >= 1
 c1725_window862: - x862 - x863 - x864 >= -2
 c1726_window863: x863 + x864 + x865 >= 1
 c1727_window863: - x863 - x864 - x865 >= -2
 c1728_window864: x864 + x865 + x866 >= 1
 c1729_window864: - x864 - x865 - x866 >= -2
 c1730_window865: x865 + x866 + x867 >= 1
 c1731_window865: - x865 - x866 - x867 >= -2
 c1732_window866: x866 + x867 + x868 >= 1
 c1733_window866: - x866 - x867 - x868 >= -2
 c1734_window867: x867 + x868 + x869 >= 1
 c1735_window867: - x867 - x868 - x869 >= -2
 c1736_window868: x868 + x869 + x870 >= 1
 c1737_window868: - x868 - x869 - x870 >= -2
 c1738_window869: x869 + x870 + x871 >= 1
 c1739_window869: - x869 - x870 - x871 >= -2
 c1740_window870: x870 + x871 + x872 >= 1
 c1741_window870: - x870 - x871 - x872 >= -2
 c1742_window871: x871 + x872 + x873 >= 1
 c1743_window871: - x871 - x872 - x873 >= -2
 c1744_window872: x872 + x873 + x874 >= 1
 c1745_window872: - x872 - x873 - x874 >= -2
 c1746_window873: x873 + x874 + x875 >= 1
 c1747_window873: - x873 - x874 - x875 >= -2
 c1748_window874: x874 + x875 + x876 >= 1
 c1749_window874: - x874 - x875 - x876 >= -2
 c1750_window875: x875 + x876 + x877 >= 1
 c1751_window875: - x875 - x876 - x877 >= -2
 c1752_window876: x876 + x877 + x878 >= 1
 c1753_window876: - x876 - x877 - x878 >= -2
 c1754_window877: x877 + x878 + x879 >= 1
 c1755_window877: - x877 - x878 - x879 >= -2
 c1756_window878: x878 + x879 + x880 >= 1
 c1757_window878: - x878 - x879 - x880 >= -2
 c1758_window879: x879 + x880 + x881 >= 1
 c1759_window879: - x879 - x880 - x881 >= -2
 c1760_window880: x880 + x881 + x882 >= 1
 c1761_window880: - x880 - x881 - x882 >= -2
 c1762_window881: x881 + x882 + x883 >= 1
 c1763_window881: - x881 - x882 - x883 >= -2
 c1764_window882: x882 + x883 + x884 >= 1
 c1765_window882: - x882 - x883 - x884 >= -2
 c1766_window883: x883 + x884 + x885 >= 1
 c1767_window883: - x883 - x884 - x885 >= -2
 c1768_window884: x884 + x885 + x886 >= 1
 c1769_window884: - x884 - x885 - x886 >= -2
 c1770_window885: x885 + x886 + x887 >= 1
 c1771_window885: - x885 - x886 - x887 >= -2
 c1772_window886: x886 + x887 + x888 >= 1
 c1773_window886: - x886 - x887 - x888 >= -2
 c1774_window887: x887 + x888 + x889 >= 1
 c1775_window887: - x887 - x888 - x889 >= -2
 c1776_window888: x888 + x889 + x890 >= 1
 c1777_window888: - x888 - x889 - x890 >= -2
 c1778_window889: x889 + x890 + x891 >= 1
 c1779_window889: - x889 - x890 - x891 >= -2
 c1780_window890: x890 + x891 + x892 >= 1
 c1781_window890: - x890 - x891 - x892 >= -2
 c1782_window891: x891 + x892 + x893 >= 1
 c1783_window891: - x891 - x892 - x893 >= -2
 c1784_window892: x892 + x893 + x894 >= 1
 c1785_window892: - x892 - x893 - x894 >= -2
 c1786_window893: x893 + x894 + x895 >= 1
 c1787_window893: - x893 - x894 - x895 >= -2
 c1788_window894: x894 + x895 + x896 >= 1
 c1789_window894: - x894 - x895 - x896 >= -2
 c1790_window895: x895 + x896 + x897 >= 1
 c1791_window895: - x895 - x896 - x897 >= -2
 c1792_window896: x896 + x897 + x898 >= 1
 c1793_window896: - x896 - x897 - x898 >= -2
 c1794_window897: x897 + x898 + x899 >= 1
 c1795_window897: - x897 - x898 - x899 >= -2
 c1796_window898: x898 + x899 + x900 >= 1
 c1797_window898: - x898 - x899 - x900 >= -2
 c1798_window899: x899 + x900 + x901 >= 1
 c1799_window899: - x899 - x900 - x901 >= -2
 c1800_window900: x900 + x901 + x902 >= 1
 c1801_window900: - x900 - x901 - x902 >= -2
 c1802_window901: x901 + x902 + x903 >= 1
 c1803_window901: - x901 - x902 - x903 >= -2
 c1804_window902: x902 + x903 + x904 >= 1
 c1805_window902: - x902 - x903 - x904 >= -2
 c1806_window903: x903 + x904 + x905 >= 1
 c1807_window903: - x903 - x904 - x905 >= -2
 c1808_window904: x904 + x905 + x906 >= 1
 c1809_window904: - x904 - x905 - x906 >= -2
 c1810_window905: x905 + x906 + x907 >= 1
 c1811_window905: - x905 - x906 - x907 >= -2
 c1812_window906: x906 + x907 + x908 >= 1
 c1813_window906: - x906 - x907 - x908 >= -2
 c1814_window907: x907 + x908 + x909 >= 1
 c1815_window907: - x907 - x908 - x909 >= -2
 c1816_window908: x908 + x909 + x910 >= 1
 c1817_window908: - x908 - x909 - x910 >= -2
 c1818_window909: x909 + x910 + x911 >= 1
 c1819_window909: - x909 - x910 - x911 >= -2
 c1820_window910: x910 + x911 + x912 >= 1
 c1821_window910: - x910 - x911 - x912 >= -2
 c1822_window911: x911 + x912 + x913 >= 1
 c1823_window911: - x911 - x912 - x913 >= -2
 c1824_window912: x912 + x913 + x914 >= 1
 c1825_window912: - x912 - x913 - x914 >= -2
 c1826_window913: x913 + x914 + x915 >= 1
 c1827_window913: - x913 - x914 - x915 >= -2
 c1828_window914: x914 + x915 + x916 >= 1
 c1829_window914: - x914 - x915 - x916 >= -2
 c1830_window915: x915 + x916 + x917 >= 1
 c1831_window915: - x915 - x916 - x917 >= -2
 c1832_window916: x916 + x917 + x918 >= 1
 c1833_window916: - x916 - x917 - x918 >= -2
 c1834_window917: x917 + x918 + x919 >= 1
 c1835_window917: - x917 - x918 - x919 >= -2
 c1836_window918: x918 + x919 + x920 >= 1
 c1837_window918: - x918 - x919 - x920 >= -2
 c1838_window919: x919 + x920 + x921 >= 1
 c1839_window919: - x919 - x920 - x921 >= -2
 c1840_window920: x920 + x921 + x922 >= 1
 c1841_window920: - x920 - x921 - x922 >= -2
 c1842_window921: x921 + x922 + x923 >= 1
 c1843_window921: - x921 - x922 - x923 >= -2
 c1844_window922: x922 + x923 + x924 >= 1
 c1845_window922: - x922 - x923 - x924 >= -2
 c1846_window923: x923 + x924 + x925 >= 1
 c1847_window923: - x923 - x924 - x925 >= -2
 c1848_window924: x924 + x925 + x926 >= 1
 c1849_window924: - x924 - x925 - x926 >= -2
 c1850_window925: x925 + x926 + x927 >= 1
 c1851_window925: - x925 - x926 - x927 >= -2
 c1852_window926: x926 + x927 + x928 >= 1
 c1853_window926: - x926 - x927 - x928 >= -2
 c1854_window927: x927 + x928 + x929 >= 1
 c1855_window927: - x927 - x928 - x929 >= -2
 c1856_window928: x928 + x929 + x930 >= 1
 c1857_window928: - x928 - x929 - x930 >= -2
 c1858_window929: x929 + x930 + x931 >= 1
 c1859_window929: - x929 - x930 - x931 >= -2
 c1860_window930: x930 + x931 + x932 >= 1
 c1861_window930: - x930 - x931 - x932 >= -2
 c1862_window931: x931 + x932 + x933 >= 1
 c1863_window931: - x931 - x932 - x933 >= -2
 c1864_window932: x932 + x933 + x934 >= 1
 c1865_window932: - x932 - x933 - x934 >= -2
 c1866_window933: x933 + x934 + x935 >= 1
 c1867_window933: - x933 - x934 - x935 >= -2
 c1868_window934: x934 + x935 + x936 >= 1
 c1869_window934: - x934 - x935 - x936 >= -2
 c1870_window935: x935 + x936 + x937 >= 1
 c1871_window935: - x935 - x936 - x937 >= -2
 c1872_window936: x936 + x937 + x938 >= 1
 c1873_window936: - x936 - x937 - x938 >= -2
 c1874_window937: x937 + x938 + x939 >= 1
 c1875_window937: - x937 - x938 - x939 >= -2
 c1876_window938: x938 + x939 + x940 >= 1
 c1877_window938: - x938 - x939 - x940 >= -2
 c1878_window939: x939 + x940 + x941 >= 1
 c1879_window939: - x939 - x940 - x941 >= -2
 c1880_window940: x940 + x941 + x942 >= 1
 c1881_window940: - x940 - x941 - x942 >= -2
 c1882_window941: x941 + x942 + x943 >= 1
 c1883_window941: - x941 - x942 - x943 >= -2
 c1884_window942: x942 + x943 + x944 >= 1
 c1885_window942: - x942 - x943 - x944 >= -2
 c1886_window943: x943 + x944 + x945 >= 1
 c1887_window943: - x943 - x944 - x945 >= -2
 c1888_window944: x944 + x945 + x946 >= 1
 c1889_window944: - x944 - x945 - x946 >= -2
 c1890_window945: x945 + x946 + x947 >= 1
 c1891_window945: - x945 - x946 - x947 >= -2
 c1892_window946: x946 + x947 + x948 >= 1
 c1893_window946: - x946 - x947 - x948 >= -2
 c1894_window947: x947 + x948 + x949 >= 1
 c1895_window947: - x947 - x948 - x949 >= -2
 c1896_window948: x948 + x949 + x950 >= 1
 c1897_window948: - x948 - x949 - x950 >= -2
 c1898_window949: x949 + x950 + x951 >= 1
 c1899_window949: - x949 - x950 - x951 >= -2
 c1900_window950: x950 + x951 + x952 >= 1
 c1901_window950: - x950 - x951 - x952 >= -2
 c1902_window951: x951 + x952 + x953 >= 1
 c1903_window951: - x951 - x952 - x953 >= -2
 c1904_window952: x952 + x953 + x954 >= 1
 c1905_window952: - x952 - x953 - x954 >= -2
 c1906_window953: x953 + x954 + x955 >= 1
 c1907_window953: - x953 - x954 - x955 >= -2
 c1908_window954: x954 + x955 + x956 >= 1
 c1909_window954: - x954 - x955 - x956 >= -2
 c1910_window955: x955 + x956 + x957 >= 1
 c1911_window955: - x955 - x956 - x957 >= -2
 c1912_window956: x956 + x957 + x958 >= 1
 c1913_window956: - x956 - x957 - x958 >= -2
 c1914_window957: x957 + x958 + x959 >= 1
 c1915_window957: - x957 - x958 - x959 >= -2
 c1916_window958: x958 + x959 + x960 >= 1
 c1917_window958: - x958 - x959 - x960 >= -2
 c1918_window959: x959 + x960 + x961 >= 1
 c1919_window959: - x959 - x960 - x961 >= -2
 c1920_window960: x960 + x961 + x962 >= 1
 c1921_window960: - x960 - x961 - x962 >= -2
 c1922_window961: x961 + x962 + x963 >= 1
 c1923_window961: - x961 - x962 - x963 >= -2
 c1924_window962: x962 + x963 + x964 >= 1
 c1925_window962: - x962 - x963 - x964 >= -2
 c1926_window963: x963 + x964 + x965 >= 1
 c1927_window963: - x963 - x964 - x965 >= -2
 c1928_window964: x964 + x965 + x966 >= 1
 c1929_window964: - x964 - x965 - x966 >= -2
 c1930_window965: x965 + x966 + x967 >= 1
 c1931_window965: - x965 - x966 - x967 >= -2
 c1932_window966: x966 + x967 + x968 >= 1
 c1933_window966: - x966 - x967 - x968 >= -2
 c1934_window967: x967 + x968 + x969 >= 1
 c1935_window967: - x967 - x968 - x969 >= -2
 c1936_window968: x968 + x969 + x970 >= 1
 c1937_window968: - x968 - x969 - x970 >= -2
 c1938_window969: x969 + x970 + x971 >= 1
 c1939_window969: - x969 - x970 - x971 >= -2
 c1940_window970: x970 + x971 + x972 >= 1
 c1941_window970: - x970 - x971 - x972 >= -2
 c1942_window971: x971 + x972 + x973 >= 1
 c1943_window971: - x971 - x972 - x973 >= -2
 c1944_window972: x972 + x973 + x974 >= 1
 c1945_window972: - x972 - x973 - x974 >= -2
 c1946_window973: x973 + x974 + x975 >= 1
 c1947_window973: - x973 - x974 - x975 >= -2
 c1948_window974: x974 + x975 + x976 >= 1
 c1949_window974: - x974 - x975 - x976 >= -2
 c1950_window975: x975 + x976 + x977 >= 1
 c1951_window975: - x975 - x976 - x977 >= -2
 c1952_window976: x976 + x977 + x978 >= 1
 c1953_window976: - x976 - x977 - x978 >= -2
 c1954_window977: x977 + x978 + x979 >= 1
 c1955_window977: - x977 - x978 - x979 >= -2
 c1956_window978: x978 + x979 + x980 >= 1
 c1957_window978: - x978 - x979 - x980 >= -2
 c1958_window979: x979 + x980 + x981 >= 1
 c1959_window979: - x979 - x980 - x981 >= -2
 c1960_window980: x980 + x981 + x982 >= 1
 c1961_window980: - x980 - x981 - x982 >= -2
 c1962_window981: x981 + x982 + x983 >= 1
 c1963_window981: - x981 - x982 - x983 >= -2
 c1964_window982: x982 + x983 + x984 >= 1
 c1965_window982: - x982 - x983 - x984 >= -2
 c1966_window983: x983 + x984 + x985 >= 1
 c1967_window983: - x983 - x984 - x985 >= -2
 c1968_window984: x984 + x985 + x986 >= 1
 c1969_window984: - x984 - x985 - x986 >= -2
 c1970_window985: x985 + x986 + x987 >= 1
 c1971_window985: - x985 - x986 - x987 >= -2
 c1972_window986: x986 + x987 + x988 >= 1
 c1973_window986: - x986 - x987 - x988 >= -2
 c1974_window987: x987 + x988 + x989 >= 1
 c1975_window987: - x987 - x988 - x989 >= -2
 c1976_window988: x988 + x989 + x990 >= 1
 c1977_window988: - x988 - x989 - x990 >= -2
 c1978_window989: x989 + x990 + x991 >= 1
 c1979_window989: - x989 - x990 - x991 >= -2
 c1980_window990: x990 + x991 + x992 >= 1
 c1981_window990: - x990 - x991 - x992 >= -2
 c1982_window991: x991 + x992 + x993 >= 1
 c1983_window991: - x991 - x992 - x993 >= -2
 c1984_window992: x992 + x993 + x994 >= 1
 c1985_window992: - x992 - x993 - x994 >= -2
 c1986_window993: x993 + x994 + x995 >= 1
 c1987_window993: - x993 - x994 - x995 >= -2
 c1988_window994: x994 + x995 + x996 >= 1
 c1989_window994: - x994 - x995 - x996 >= -2
 c1990_window995: x995 + x996 + x997 >= 1
 c1991_window995: - x995 - x996 - x997 >= -2
 c1992_window996: x996 + x997 + x998 >= 1
 c1993_window996: - x996 - x997 - x998 >= -2
 c1994_window997: x997 + x998 + x999 >= 1
 c1995_window997: - x997 - x998 - x999 >= -2
 c1996_window998: x998 + x999 + x1000 >= 1
 c1997_window998: - x998 - x999 - x1000 >= -2
 c1998_window999: x999 + x1000 + x1001 >= 1
 c1999_window999: - x999 - x1000 - x1001 >= -2
 c2000_window1000: x1000 + x1001 + x1002 >= 1
 c2001_window1000: - x1000 - x1001 - x1002 >= -2
 c2002_window1001: x1001 + x1002 + x1003 >= 1
 c2003_window1001: - x1001 - x1002 - x1003 >= -2
 c2004_window1002: x1002 + x1003 + x1004 >= 1
 c2005_window1002: - x1002 - x1003 - x1004 >= -2
 c2006_window1003: x1003 + x1004 + x1005 >= 1
 c2007_window1003: - x1003 - x1004 - x1005 >= -2
 c2008_window1004: x1004 + x1005 + x1006 >= 1
 c2009_window1004: - x1004 - x1005 - x1006 >= -2
 c2010_window1005: x1005 + x1006 + x1007 >= 1
 c2011_window1005: - x1005 - x1006 - x1007 >= -2
 c2012_window1006: x1006 + x1007 + x1008 >= 1
 c2013_window1006: - x1006 - x1007 - x1008 >= -2
 c2014_window1007: x1007 + x1008 + x1009 >= 1
 c2015_window1007: - x1007 - x1008 - x1009 >= -2
 c2016_window1008: x1008 + x1009 + x1010 >= 1
 c2017_window1008: - x1008 - x1009 - x1010 >= -2
 c2018_window1009: x1009 + x1010 + x1011 >= 1
 c2019_window1009: - x1009 - x1010 - x1011 >= -2
 c2020_window1010: x1010 + x1011 + x1012 >= 1
 c2021_window1010: - x1010 - x1011 - x1012 >= -2
 c2022_window1011: x1011 + x1012 + x1013 >= 1
 c2023_window1011: - x1011 - x1012 - x1013 >= -2
 c2024_window1012: x1012 + x1013 + x1014 >= 1
 c2025_window1012: - x1012 - x1013 - x1014 >= -2
 c2026_window1013: x1013 + x1014 + x1015 >= 1
 c2027_window1013: - x1013 - x1014 - x1015 >= -2
 c2028_window1014: x1014 + x1015 + x1016 >= 1
 c2029_window1014: - x1014 - x1015 - x1016 >= -2
 c2030_window1015: x1015 + x1016 + x1017 >= 1
 c2031_window1015: - x1015 - x1016 - x1017 >= -2
 c2032_window1016: x1016 + x1017 + x1018 >= 1
 c2033_window1016: - x1016 - x1017 - x1018 >= -2
 c2034_window1017: x1017 + x1018 + x1019 >= 1
 c2035_window1017: - x1017 - x1018 - x1019 >= -2
 c2036_window1018: x1018 + x1019 + x1020 >= 1
 c2037_window1018: - x1018 - x1019 - x1020 >= -2
 c2038_window1019: x1019 + x1020 + x1021 >= 1
 c2039_window1019: - x1019 - x1020 - x1021 >= -2
 c2040_window1020: x1020 + x1021 + x1022 >= 1
 c2041_window1020: - x1020 - x1021 - x1022 >= -2
 c2042_window1021: x1021 + x1022 + x1023 >= 1
 c2043_window1021: - x1021 - x1022 - x1023 >= -2
 c2044_window1022: x1022 + x1023 + x1024 >= 1
 c2045_window1022: - x1022 - x1023 - x1024 >= -2
 c2046_window1023: x1023 + x1024 + x1025 >= 1
 c2047_window1023: - x1023 - x1024 - x1025 >= -2
 c2048_window1024: x1024 + x1025 + x1026 >= 1
 c2049_window1024: - x1024 - x1025 - x1026 >= -2
 c2050_window1025: x1025 + x1026 + x1027 >= 1
 c2051_window1025: - x1025 - x1026 - x1027 >= -2
 c2052_window1026: x1026 + x1027 + x1028 >= 1
 c2053_window1026: - x1026 - x1027 - x1028 >= -2
 c2054_window1027: x1027 + x1028 + x1029 >= 1
 c2055_window1027: - x1027 - x1028 - x1029 >= -2
 c2056_window1028: x1028 + x1029 + x1030 >= 1
 c2057_window1028: - x1028 - x1029 - x1030 >= -2
 c2058_window1029: x1029 + x1030 + x1031 >= 1
 c2059_window1029: - x1029 - x1030 - x1031 >= -2
 c2060_window1030: x1030 + x1031 + x1032 >= 1
 c2061_window1030: - x1030 - x1031 - x1032 >= -2
 c2062_window1031: x1031 + x1032 + x1033 >= 1
 c2063_window1031: - x1031 - x1032 - x1033 >= -2
 c2064_window1032: x1032 + x1033 + x1034 >= 1
 c2065_window1032: - x1032 - x1033 - x1034 >= -2
 c2066_window1033: x1033 + x1034 + x1035 >= 1
 c2067_window1033: - x1033 - x1034 - x1035 >= -2
 c2068_window1034: x1034 + x1035 + x1036 >= 1
 c2069_window1034: - x1034 - x1035 - x1036 >= -2
 c2070_window1035: x1035 + x1036 + x1037 >= 1
 c2071_window1035: - x1035 - x1036 - x1037 >= -2
 c2072_window1036: x1036 + x1037 + x1038 >= 1
 c2073_window1036: - x1036 - x1037 - x1038 >= -2
 c2074_window1037: x1037 + x1038 + x1039 >= 1
 c2075_window1037: - x1037 - x1038 - x1039 >= -2
 c2076_window1038: x1038 + x1039 + x1040 >= 1
 c2077_window1038: - x1038 - x1039 - x1040 >= -2
 c2078_window1039: x1039 + x1040 + x1041 >= 1
 c2079_window1039: - x1039 - x1040 - x1041 >= -2
 c2080_window1040: x1040 + x1041 + x1042 >= 1
 c2081_window1040: - x1040 - x1041 - x1042 >= -2
 c2082_window1041: x1041 + x1042 + x1043 >= 1
 c2083_window1041: - x1041 - x1042 - x1043 >= -2
 c2084_window1042: x1042 + x1043 + x1044 >= 1
 c2085_window1042: - x1042 - x1043 - x1044 >= -2
 c2086_window1043: x1043 + x1044 + x1045 >= 1
 c2087_window1043: - x1043 - x1044 - x1045 >= -2
 c2088_window1044: x1044 + x1045 + x1046 >= 1
 c2089_window1044: - x1044 - x1045 - x1046 >= -2
 c2090_window1045: x1045 + x1046 + x1047 >= 1
 c2091_window1045: - x1045 - x1046 - x1047 >= -2
 c2092_window1046: x1046 + x1047 + x1048 >= 1
 c2093_window1046: - x1046 - x1047 - x1048 >= -2
 c2094_window1047: x1047 + x1048 + x1049 >= 1
 c2095_window1047: - x1047 - x1048 - x1049 >= -2
 c2096_window1048: x1048 + x1049 + x1050 >= 1
 c2097_window1048: - x1048 - x1049 - x1050 >= -2
 c2098_window1049: x1049 + x1050 + x1051 >= 1
 c2099_window1049: - x1049 - x1050 - x1051 >= -2
 c2100_window1050: x1050 + x1051 + x1052 >= 1
 c2101_window1050: - x1050 - x1051 - x1052 >= -2
 c2102_window1051: x1051 + x1052 + x1053 >= 1
 c2103_window1051: - x1051 - x1052 - x1053 >= -2
 c2104_window1052: x1052 + x1053 + x1054 >= 1
 c2105_window1052: - x1052 - x1053 - x1054 >= -2
 c2106_window1053: x1053 + x1054 + x1055 >= 1
 c2107_window1053: - x1053 - x1054 - x1055 >= -2
 c2108_window1054: x1054 + x1055 + x1056 >= 1
 c2109_window1054: - x1054 - x1055 - x1056 >= -2
 c2110_window1055: x1055 + x1056 + x1057 >= 1
 c2111_window1055: - x1055 - x1056 - x1057 >= -2
 c2112_window1056: x1056 + x1057 + x1058 >= 1
 c2113_window1056: - x1056 - x1057 - x1058 >= -2
 c2114_window1057: x1057 + x1058 + x1059 >= 1
 c2115_window1057: - x1057 - x1058 - x1059 >= -2
 c2116_window1058: x1058 + x1059 + x1060 >= 1
 c2117_window1058: - x1058 - x1059 - x1060 >= -2
 c2118_window1059: x1059 + x1060 + x1061 >= 1
 c2119_window1059: - x1059 - x1060 - x1061 >= -2
 c2120_window1060: x1060 + x1061 + x1062 >= 1
 c2121_window1060: - x1060 - x1061 - x1062 >= -2
 c2122_window1061: x1061 + x1062 + x1063 >= 1
 c2123_window1061: - x1061 - x1062 - x1063 >= -2
 c2124_window1062: x1062 + x1063 + x1064 >= 1
 c2125_window1062: - x1062 - x1063 - x1064 >= -2
 c2126_window1063: x1063 + x1064 + x1065 >= 1
 c2127_window1063: - x1063 - x1064 - x1065 >= -2
 c2128_window1064: x1064 + x1065 + x1066 >= 1
 c2129_window1064: - x1064 - x1065 - x1066 >= -2
 c2130_window1065: x1065 + x1066 + x1067 >= 1
 c2131_window1065: - x1065 - x1066 - x1067 >= -2
 c2132_window1066: x1066 + x1067 + x1068 >= 1
 c2133_window1066: - x1066 - x1067 - x1068 >= -2
 c2134_window1067: x1067 + x1068 + x1069 >= 1
 c2135_window1067: - x1067 - x1068 - x1069 >= -2
 c2136_window1068: x1068 + x1069 + x1070 >= 1
 c2137_window1068: - x1068 - x1069 - x1070 >= -2
 c2138_window1069: x1069 + x1070 + x1071 >= 1
 c2139_window1069: - x1069 - x1070 - x1071 >= -2
 c2140_window1070: x1070 + x1071 + x1072 >= 1
 c2141_window1070: - x1070 - x1071 - x1072 >= -2
 c2142_window1071: x1071 + x1072 + x1073 >= 1
 c2143_window1071: - x1071 - x1072 - x1073 >= -2
 c2144_window1072: x1072 + x1073 + x1074 >= 1
 c2145_window1072: - x1072 - x1073 - x1074 >= -2
 c2146_window1073: x1073 + x1074 + x1075 >= 1
 c2147_window1073: - x1073 - x1074 - x1075 >= -2
 c2148_window1074: x1074 + x1075 + x1076 >= 1
 c2149_window1074: - x1074 - x1075 - x1076 >= -2
 c2150_window1075: x1075 + x1076 + x1077 >= 1
 c2151_window1075: - x1075 - x1076 - x1077 >= -2
 c2152_window1076: x1076 + x1077 + x1078 >= 1
 c2153_window1076: - x1076 - x1077 - x1078 >= -2
 c2154_window1077: x1077 + x1078 + x1079 >= 1
 c2155_window1077: - x1077 - x1078 - x1079 >= -2
 c2156_window1078: x1078 + x1079 + x1080 >= 1
 c2157_window1078: - x1078 - x1079 - x1080 >= -2
 c2158_window1079: x1079 + x1080 + x1081 >= 1
 c2159_window1079: - x1079 - x1080 - x1081 >= -2
 c2160_window1080: x1080 + x1081 + x1082 >= 1
 c2161_window1080: - x1080 - x1081 - x1082 >= -2
 c2162_window1081: x1081 + x1082 + x1083 >= 1
 c2163_window1081: - x1081 - x1082 - x1083 >= -2
 c2164_window1082: x1082 + x1083 + x1084 >= 1
 c2165_window1082: - x1082 - x1083 - x1084 >= -2
 c2166_window1083: x1083 + x1084 + x1085 >= 1
 c2167_window1083: - x1083 - x1084 - x1085 >= -2
 c2168_window1084: x1084 + x1085 + x1086 >= 1
 c2169_window1084: - x1084 - x1085 - x1086 >= -2
 c2170_window1085: x1085 + x1086 + x1087 >= 1
 c2171_window1085: - x1085 - x1086 - x1087 >= -2
 c2172_window1086: x1086 + x1087 + x1088 >= 1
 c2173_window1086: - x1086 - x1087 - x1088 >= -2
 c2174_window1087: x1087 + x1088 + x1089 >= 1
 c2175_window1087: - x1087 - x1088 - x1089 >= -2
 c2176_window1088: x1088 + x1089 + x1090 >= 1
 c2177_window1088: - x1088 - x1089 - x1090 >= -2
 c2178_window1089: x1089 + x1090 + x1091 >= 1
 c2179_window1089: - x1089 - x1090 - x1091 >= -2
 c2180_window1090: x1090 + x1091 + x1092 >= 1
 c2181_window1090: - x1090 - x1091 - x1092 >= -2
 c2182_window1091: x1091 + x1092 + x1093 >= 1
 c2183_window1091: - x1091 - x1092 - x1093 >= -2
 c2184_window1092: x1092 + x1093 + x1094 >= 1
 c2185_window1092: - x1092 - x1093 - x1094 >= -2
 c2186_window1093: x1093 + x1094 + x1095 >= 1
 c2187_window1093: - x1093 - x1094 - x1095 >= -2
 c2188_window1094: x1094 + x1095 + x1096 >= 1
 c2189_window1094: - x1094 - x1095 - x1096 >= -2
 c2190_window1095: x1095 + x1096 + x1097 >= 1
 c2191_window1095: - x1095 - x1096 - x1097 >= -2
 c2192_window1096: x1096 + x1097 + x1098 >= 1
 c2193_window1096: - x1096 - x1097 - x1098 >= -2
 c2194_window1097: x1097 + x1098 + x1099 >= 1
 c2195_window1097: - x1097 - x1098 - x1099 >= -2
 c2196_window1098: x1098 + x1099 + x1100 >= 1
 c2197_window1098: - x1098 - x1099 - x1100 >= -2
 c2198_window1099: x1099 + x1100 + x1101 >= 1
 c2199_window1099: - x1099 - x1100 - x1101 >= -2
 c2200_window1100: x1100 + x1101 + x1102 >= 1
 c2201_window1100: - x1100 - x1101 - x1102 >= -2
 c2202_window1101: x1101 + x1102 + x1103 >= 1
 c2203_window1101: - x1101 - x1102 - x1103 >= -2
 c2204_window1102: x1102 + x1103 + x1104 >= 1
 c2205_window1102: - x1102 - x1103 - x1104 >= -2
 c2206_window1103: x1103 + x1104 + x1105 >= 1
 c2207_window1103: - x1103 - x1104 - x1105 >= -2
 c2208_window1104: x1104 + x1105 + x1106 >= 1
 c2209_window1104: - x1104 - x1105 - x1106 >= -2
 c2210_window1105: x1105 + x1106 + x1107 >= 1
 c2211_window1105: - x1105 - x1106 - x1107 >= -2
 c2212_window1106: x1106 + x1107 + x1108 >= 1
 c2213_window1106: - x1106 - x1107 - x1108 >= -2
 c2214_window1107: x1107 + x1108 + x1109 >= 1
 c2215_window1107: - x1107 - x1108 - x1109 >= -2
 c2216_window1108: x1108 + x1109 + x1110 >= 1
 c2217_window1108: - x1108 - x1109 - x1110 >= -2
 c2218_window1109: x1109 + x1110 + x1111 >= 1
 c2219_window1109: - x1109 - x1110 - x1111 >= -2
 c2220_window1110: x1110 + x1111 + x1112 >= 1
 c2221_window1110: - x1110 - x1111 - x1112 >= -2
 c2222_window1111: x1111 + x1112 + x1113 >= 1
 c2223_window1111: - x1111 - x1112 - x1113 >= -2
 c2224_window1112: x1112 + x1113 + x1114 >= 1
 c2225_window1112: - x1112 - x1113 - x1114 >= -2
 c2226_window1113: x1113 + x1114 + x1115 >= 1
 c2227_window1113: - x1113 - x1114 - x1115 >= -2
 c2228_window1114: x1114 + x1115 + x1116 >= 1
 c2229_window1114: - x1114 - x1115 - x1116 >= -2
 c2230_window1115: x1115 + x1116 + x1117 >= 1
 c2231_window1115: - x1115 - x1116 - x1117 >= -2
 c2232_window1116: x1116 + x1117 + x1118 >= 1
 c2233_window1116: - x1116 - x1117 - x1118 >= -2
 c2234_window1117: x1117 + x1118 + x1119 >= 1
 c2235_window1117: - x1117 - x1118 - x1119 >= -2
 c2236_window1118: x1118 + x1119 + x1120 >= 1
 c2237_window1118: - x1118 - x1119 - x1120 >= -2
 c2238_window1119: x1119 + x1120 + x1121 >= 1
 c2239_window1119: - x1119 - x1120 - x1121 >= -2
 c2240_window1120: x1120 + x1121 + x1122 >= 1
 c2241_window1120: - x1120 - x1121 - x1122 >= -2
 c2242_window1121: x1121 + x1122 + x1123 >= 1
 c2243_window1121: - x1121 - x1122 - x1123 >= -2
 c2244_window1122: x1122 + x1123 + x1124 >= 1
 c2245_window1122: - x1122 - x1123 - x1124 >= -2
 c2246_window1123: x1123 + x1124 + x1125 >= 1
 c2247_window1123: - x1123 - x1124 - x1125 >= -2
 c2248_window1124: x1124 + x1125 + x1126 >= 1
 c2249_window1124: - x1124 - x1125 - x1126 >= -2
 c2250_window1125: x1125 + x1126 + x1127 >= 1
 c2251_window1125: - x1125 - x1126 - x1127 >= -2
 c2252_window1126: x1126 + x1127 + x1128 >= 1
 c2253_window1126: - x1126 - x1127 - x1128 >= -2
 c2254_window1127: x1127 + x1128 + x1129 >= 1
 c2255_window1127: - x1127 - x1128 - x1129 >= -2
 c2256_window1128: x1128 + x1129 + x1130 >= 1
 c2257_window1128: - x1128 - x1129 - x1130 >= -2
 c2258_window1129: x1129 + x1130 + x1131 >= 1
 c2259_window1129: - x1129 - x1130 - x1131 >= -2
 c2260_window1130: x1130 + x1131 + x1132 >= 1
 c2261_window1130: - x1130 - x1131 - x1132 >= -2
 c2262_window1131: x1131 + x1132 + x1133 >= 1
 c2263_window1131: - x1131 - x1132 - x1133 >= -2
 c2264_window1132: x1132 + x1133 + x1134 >= 1
 c2265_window1132: - x1132 - x1133 - x1134 >= -2
 c2266_window1133: x1133 + x1134 + x1135 >= 1
 c2267_window1133: - x1133 - x1134 - x1135 >= -2
 c2268_window1134: x1134 + x1135 + x1136 >= 1
 c2269_window1134: - x1134 - x1135 - x1136 >= -2
 c2270_window1135: x1135 + x1136 + x1137 >= 1
 c2271_window1135: - x1135 - x1136 - x1137 >= -2
 c2272_window1136: x1136 + x1137 + x1138 >= 1
 c2273_window1136: - x1136 - x1137 - x1138 >= -2
 c2274_window1137: x1137 + x1138 + x1139 >= 1
 c2275_window1137: - x1137 - x1138 - x1139 >= -2
 c2276_window1138: x1138 + x1139 + x1140 >= 1
 c2277_window1138: - x1138 - x1139 - x1140 >= -2
 c2278_window1139: x1139 + x1140 + x1141 >= 1
 c2279_window1139: - x1139 - x1140 - x1141 >= -2
 c2280_window1140: x1140 + x1141 + x1142 >= 1
 c2281_window1140: - x1140 - x1141 - x1142 >= -2
 c2282_window1141: x1141 + x1142 + x1143 >= 1
 c2283_window1141: - x1141 - x1142 - x1143 >= -2
 c2284_window1142: x1142 + x1143 + x1144 >= 1
 c2285_window1142: - x1142 - x1143 - x1144 >= -2
 c2286_window1143: x1143 + x1144 + x1145 >= 1
 c2287_window1143: - x1143 - x1144 - x1145 >= -2
 c2288_window1144: x1144 + x1145 + x1146 >= 1
 c2289_window1144: - x1144 - x1145 - x1146 >= -2
 c2290_window1145: x1145 + x1146 + x1147 >= 1
 c2291_window1145: - x1145 - x1146 - x1147 >= -2
 c2292_window1146: x1146 + x1147 + x1148 >= 1
 c2293_window1146: - x1146 - x1147 - x1148 >= -2
 c2294_window1147: x1147 + x1148 + x1149 >= 1
 c2295_window1147: - x1147 - x1148 - x1149 >= -2
 c2296_window1148: x1148 + x1149 + x1150 >= 1
 c2297_window1148: - x1148 - x1149 - x1150 >= -2
 c2298_window1149: x1149 + x1150 + x1151 >= 1
 c2299_window1149: - x1149 - x1150 - x1151 >= -2
 c2300_window1150: x1150 + x1151 + x1152 >= 1
 c2301_window1150: - x1150 - x1151 - x1152 >= -2
 c2302_window1151: x1151 + x1152 + x1153 >= 1
 c2303_window1151: - x1151 - x1152 - x1153 >= -2
 c2304_window1152: x1152 + x1153 + x1154 >= 1
 c2305_window1152: - x1152 - x1153 - x1154 >= -2
 c2306_window1153: x1153 + x1154 + x1155 >= 1
 c2307_window1153: - x1153 - x1154 - x1155 >= -2
 c2308_window1154: x1154 + x1155 + x1156 >= 1
 c2309_window1154: - x1154 - x1155 - x1156 >= -2
 c2310_window1155: x1155 + x1156 + x1157 >= 1
 c2311_window1155: - x1155 - x1156 - x1157 >= -2
 c2312_window1156: x1156 + x1157 + x1158 >= 1
 c2313_window1156: - x1156 - x1157 - x1158 >= -2
 c2314_window1157: x1157 + x1158 + x1159 >= 1
 c2315_window1157: - x1157 - x1158 - x1159 >= -2
 c2316_window1158: x1158 + x1159 + x1160 >= 1
 c2317_window1158: - x1158 - x1159 - x1160 >= -2
 c2318_window1159: x1159 + x1160 + x1161 >= 1
 c2319_window1159: - x1159 - x1160 - x1161 >= -2
 c2320_window1160: x1160 + x1161 + x1162 >= 1
 c2321_window1160: - x1160 - x1161 - x1162 >= -2
 c2322_window1161: x1161 + x1162 + x1163 >= 1
 c2323_window1161: - x1161 - x1162 - x1163 >= -2
 c2324_window1162: x1162 + x1163 + x1164 >= 1
 c2325_window1162: - x1162 - x1163 - x1164 >= -2
 c2326_window1163: x1163 + x1164 + x1165 >= 1
 c2327_window1163: - x1163 - x1164 - x1165 >= -2
 c2328_window1164: x1164 + x1165 + x1166 >= 1
 c2329_window1164: - x1164 - x1165 - x1166 >= -2
 c2330_window1165: x1165 + x1166 + x1167 >= 1
 c2331_window1165: - x1165 - x1166 - x1167 >= -2
 c2332_window1166: x1166 + x1167 + x1168 >= 1
 c2333_window1166: - x1166 - x1167 - x1168 >= -2
 c2334_window1167: x1167 + x1168 + x1169 >= 1
 c2335_window1167: - x1167 - x1168 - x1169 >= -2
 c2336_window1168: x1168 + x1169 + x1170 >= 1
 c2337_window1168: - x1168 - x1169 - x1170 >= -2
 c2338_window1169: x1169 + x1170 + x1171 >= 1
 c2339_window1169: - x1169 - x1170 - x1171 >= -2
 c2340_window1170: x1170 + x1171 + x1172 >= 1
 c2341_window1170: - x1170 - x1171 - x1172 >= -2
 c2342_window1171: x1171 + x1172 + x1173 >= 1
 c2343_window1171: - x1171 - x1172 - x1173 >= -2
 c2344_window1172: x1172 + x1173 + x1174 >= 1
 c2345_window1172: - x1172 - x1173 - x1174 >= -2
 c2346_window1173: x1173 + x1174 + x1175 >= 1
 c2347_window1173: - x1173 - x1174 - x1175 >= -2
 c2348_window1174: x1174 + x1175 + x1176 >= 1
 c2349_window1174: - x1174 - x1175 - x1176 >= -2
 c2350_window1175: x1175 + x1176 + x1177 >= 1
 c2351_window1175: - x1175 - x1176 - x1177 >= -2
 c2352_window1176: x1176 + x1177 + x1178 >= 1
 c2353_window1176: - x1176 - x1177 - x1178 >= -2
 c2354_window1177: x1177 + x1178 + x1179 >= 1
 c2355_window1177: - x1177 - x1178 - x1179 >= -2
 c2356_window1178: x1178 + x1179 + x1180 >= 1
 c2357_window1178: - x1178 - x1179 - x1180 >= -2
 c2358_window1179: x1179 + x1180 + x1181 >= 1
 c2359_window1179: - x1179 - x1180 - x1181 >= -2
 c2360_window1180: x1180 + x1181 + x1182 >= 1
 c2361_window1180: - x1180 - x1181 - x1182 >= -2
 c2362_window1181: x1181 + x1182 + x1183 >= 1
 c2363_window1181: - x1181 - x1182 - x1183 >= -2
 c2364_window1182: x1182 + x1183 + x1184 >= 1
 c2365_window1182: - x1182 - x1183 - x1184 >= -2
 c2366_window1183: x1183 + x1184 + x1185 >= 1
 c2367_window1183: - x1183 - x1184 - x1185 >= -2
 c2368_window1184: x1184 + x1185 + x1186 >= 1
 c2369_window1184: - x1184 - x1185 - x1186 >= -2
 c2370_window1185: x1185 + x1186 + x1187 >= 1
 c2371_window1185: - x1185 - x1186 - x1187 >= -2
 c2372_window1186: x1186 + x1187 + x1188 >= 1
 c2373_window1186: - x1186 - x1187 - x1188 >= -2
 c2374_window1187: x1187 + x1188 + x1189 >= 1
 c2375_window1187: - x1187 - x1188 - x1189 >= -2
 c2376_window1188: x1188 + x1189 + x1190 >= 1
 c2377_window1188: - x1188 - x1189 - x1190 >= -2
 c2378_window1189: x1189 + x1190 + x1191 >= 1
 c2379_window1189: - x1189 - x1190 - x1191 >= -2
 c2380_window1190: x1190 + x1191 + x1192 >= 1
 c2381_window1190: - x1190 - x1191 - x1192 >= -2
 c2382_window1191: x1191 + x1192 + x1193 >= 1
 c2383_window1191: - x1191 - x1192 - x1193 >= -2
 c2384_window1192: x1192 + x1193 + x1194 >= 1
 c2385_window1192: - x1192 - x1193 - x1194 >= -2
 c2386_window1193: x1193 + x1194 + x1195 >= 1
 c2387_window1193: - x1193 - x1194 - x1195 >= -2
 c2388_window1194: x1194 + x1195 + x1196 >= 1
 c2389_window1194: - x1194 - x1195 - x1196 >= -2
 c2390_window1195: x1195 + x1196 + x1197 >= 1
 c2391_window1195: - x1195 - x1196 - x1197 >= -2
 c2392_window1196: x1196 + x1197 + x1198 >= 1
 c2393_window1196: - x1196 - x1197 - x1198 >= -2
 c2394_window1197: x1197 + x1198 + x1199 >= 1
 c2395_window1197: - x1197 - x1198 - x1199 >= -2
 c2396_window1198: x1198 + x1199 + x1200 >= 1
 c2397_window1198: - x1198 - x1199 - x1200 >= -2
 c2398_window1199: x1199 + x1200 + x1201 >= 1
 c2399_window1199: - x1199 - x1200 - x1201 >= -2
 c2400_window1200: x1200 + x1201 + x1202 >= 1
 c2401_window1200: - x1200 - x1201 - x1202 >= -2
 c2402_window1201: x1201 + x1202 + x1203 >= 1
 c2403_window1201: - x1201 - x1202 - x1203 >= -2
 c2404_window1202: x1202 + x1203 + x1204 >= 1
 c2405_window1202: - x1202 - x1203 - x1204 >= -2
 c2406_window1203: x1203 + x1204 + x1205 >= 1
 c2407_window1203: - x1203 - x1204 - x1205 >= -2
 c2408_window1204: x1204 + x1205 + x1206 >= 1
 c2409_window1204: - x1204 - x1205 - x1206 >= -2
 c2410_window1205: x1205 + x1206 + x1207 >= 1
 c2411_window1205: - x1205 - x1206 - x1207 >= -2
 c2412_window1206: x1206 + x1207 + x1208 >= 1
 c2413_window1206: - x1206 - x1207 - x1208 >= -2
 c2414_window1207: x1207 + x1208 + x1209 >= 1
 c2415_window1207: - x1207 - x1208 - x1209 >= -2
 c2416_window1208: x1208 + x1209 + x1210 >= 1
 c2417_window1208: - x1208 - x1209 - x1210 >= -2
 c2418_window1209: x1209 + x1210 + x1211 >= 1
 c2419_window1209: - x1209 - x1210 - x1211 >= -2
 c2420_window1210: x1210 + x1211 + x1212 >= 1
 c2421_window1210: - x1210 - x1211 - x1212 >= -2
 c2422_window1211: x1211 + x1212 + x1213 >= 1
 c2423_window1211: - x1211 - x1212 - x1213 >= -2
 c2424_window1212: x1212 + x1213 + x1214 >= 1
 c2425_window1212: - x1212 - x1213 - x1214 >= -2
 c2426_window1213: x1213 + x1214 + x1215 >= 1
 c2427_window1213: - x1213 - x1214 - x1215 >= -2
 c2428_window1214: x1214 + x1215 + x1216 >= 1
 c2429_window1214: - x1214 - x1215 - x1216 >= -2
 c2430_window1215: x1215 + x1216 + x1217 >= 1
 c2431_window1215: - x1215 - x1216 - x1217 >= -2
 c2432_window1216: x1216 + x1217 + x1218 >= 1
 c2433_window1216: - x1216 - x1217 - x1218 >= -2
 c2434_window1217: x1217 + x1218 + x1219 >= 1
 c2435_window1217: - x1217 - x1218 - x1219 >= -2
 c2436_window1218: x1218 + x1219 + x1220 >= 1
 c2437_window1218: - x1218 - x1219 - x1220 >= -2
 c2438_window1219: x1219 + x1220 + x1221 >= 1
 c2439_window1219: - x1219 - x1220 - x1221 >= -2
 c2440_window1220: x1220 + x1221 + x1222 >= 1
 c2441_window1220: - x1220 - x1221 - x1222 >= -2
 c2442_window1221: x1221 + x1222 + x1223 >= 1
 c2443_window1221: - x1221 - x1222 - x1223 >= -2
 c2444_window1222: x1222 + x1223 + x1224 >= 1
 c2445_window1222: - x1222 - x1223 - x1224 >= -2
 c2446_window1223: x1223 + x1224 + x1225 >= 1
 c2447_window1223: - x1223 - x1224 - x1225 >= -2
 c2448_window1224: x1224 + x1225 + x1226 >= 1
 c2449_window1224: - x1224 - x1225 - x1226 >= -2
 c2450_window1225: x1225 + x1226 + x1227 >= 1
 c2451_window1225: - x1225 - x1226 - x1227 >= -2
 c2452_window1226: x1226 + x1227 + x1228 >= 1
 c2453_window1226: - x1226 - x1227 - x1228 >= -2
 c2454_window1227: x1227 + x1228 + x1229 >= 1
 c2455_window1227: - x1227 - x1228 - x1229 >= -2
 c2456_window1228: x1228 + x1229 + x1230 >= 1
 c2457_window1228: - x1228 - x1229 - x1230 >= -2
 c2458_window1229: x1229 + x1230 + x1231 >= 1
 c2459_window1229: - x1229 - x1230 - x1231 >= -2
 c2460_window1230: x1230 + x1231 + x1232 >= 1
 c2461_window1230: - x1230 - x1231 - x1232 >= -2
 c2462_window1231: x1231 + x1232 + x1233 >= 1
 c2463_window1231: - x1231 - x1232 - x1233 >= -2
 c2464_window1232: x1232 + x1233 + x1234 >= 1
 c2465_window1232: - x1232 - x1233 - x1234 >= -2
 c2466_window1233: x1233 + x1234 + x1235 >= 1
 c2467_window1233: - x1233 - x1234 - x1235 >= -2
 c2468_window1234: x1234 + x1235 + x1236 >= 1
 c2469_window1234: - x1234 - x1235 - x1236 >= -2
 c2470_window1235: x1235 + x1236 + x1237 >= 1
 c2471_window1235: - x1235 - x1236 - x1237 >= -2
 c2472_window1236: x1236 + x1237 + x1238 >= 1
 c2473_window1236: - x1236 - x1237 - x1238 >= -2
 c2474_window1237: x1237 + x1238 + x1239 >= 1
 c2475_window1237: - x1237 - x1238 - x1239 >= -2
 c2476_window1238: x1238 + x1239 + x1240 >= 1
 c2477_window1238: - x1238 - x1239 - x1240 >= -2
 c2478_window1239: x1239 + x1240 + x1241 >= 1
 c2479_window1239: - x1239 - x1240 - x1241 >= -2
 c2480_window1240: x1240 + x1241 + x1242 >= 1
 c2481_window1240: - x1240 - x1241 - x1242 >= -2
 c2482_window1241: x1241 + x1242 + x1243 >= 1
 c2483_window1241: - x1241 - x1242 - x1243 >= -2
 c2484_window1242: x1242 + x1243 + x1244 >= 1
 c2485_window1242: - x1242 - x1243 - x1244 >= -2
 c2486_window1243: x1243 + x1244 + x1245 >= 1
 c2487_window1243: - x1243 - x1244 - x1245 >= -2
 c2488_window1244: x1244 + x1245 + x1246 >= 1
 c2489_window1244: - x1244 - x1245 - x1246 >= -2
 c2490_window1245: x1245 + x1246 + x1247 >= 1
 c2491_window1245: - x1245 - x1246 - x1247 >= -2
 c2492_window1246: x1246 + x1247 + x1248 >= 1
 c2493_window1246: - x1246 - x1247 - x1248 >= -2
 c2494_window1247: x1247 + x1248 + x1249 >= 1
 c2495_window1247: - x1247 - x1248 - x1249 >= -2
 c2496_window1248: x1248 + x1249 + x1250 >= 1
 c2497_window1248: - x1248 - x1249 - x1250 >= -2
 c2498_window1249: x1249 + x1250 + x1251 >= 1
 c2499_window1249: - x1249 - x1250 - x1251 >= -2
 c2500_window1250: x1250 + x1251 + x1252 >= 1
 c2501_window1250: - x1250 - x1251 - x1252 >= -2
 c2502_window1251: x1251 + x1252 + x1253 >= 1
 c2503_window1251: - x1251 - x1252 - x1253 >= -2
 c2504_window1252: x1252 + x1253 + x1254 >= 1
 c2505_window1252: - x1252 - x1253 - x1254 >= -2
 c2506_window1253: x1253 + x1254 + x1255 >= 1
 c2507_window1253: - x1253 - x1254 - x1255 >= -2
 c2508_window1254: x1254 + x1255 + x1256 >= 1
 c2509_window1254: - x1254 - x1255 - x1256 >= -2
 c2510_window1255: x1255 + x1256 + x1257 >= 1
 c2511_window1255: - x1255 - x1256 - x1257 >= -2
 c2512_window1256: x1256 + x1257 + x1258 >= 1
 c2513_window1256: - x1256 - x1257 - x1258 >= -2
 c2514_window1257: x1257 + x1258 + x1259 >= 1
 c2515_window1257: - x1257 - x1258 - x1259 >= -2
 c2516_window1258: x1258 + x1259 + x1260 >= 1
 c2517_window1258: - x1258 - x1259 - x1260 >= -2
 c2518_window1259: x1259 + x1260 + x1261 >= 1
 c2519_window1259: - x1259 - x1260 - x1261 >= -2
 c2520_window1260: x1260 + x1261 + x1262 >= 1
 c2521_window1260: - x1260 - x1261 - x1262 >= -2
 c2522_window1261: x1261 + x1262 + x1263 >= 1
 c2523_window1261: - x1261 - x1262 - x1263 >= -2
 c2524_window1262: x1262 + x1263 + x1264 >= 1
 c2525_window1262: - x1262 - x1263 - x1264 >= -2
 c2526_window1263: x1263 + x1264 + x1265 >= 1
 c2527_window1263: - x1263 - x1264 - x1265 >= -2
 c2528_window1264: x1264 + x1265 + x1266 >= 1
 c2529_window1264: - x1264 - x1265 - x1266 >= -2
 c2530_window1265: x1265 + x1266 + x1267 >= 1
 c2531_window1265: - x1265 - x1266 - x1267 >= -2
 c2532_window1266: x1266 + x1267 + x1268 >= 1
 c2533_window1266: - x1266 - x1267 - x1268 >= -2
 c2534_window1267: x1267 + x1268 + x1269 >= 1
 c2535_window1267: - x1267 - x1268 - x1269 >= -2
 c2536_window1268: x1268 + x1269 + x1270 >= 1
 c2537_window1268: - x1268 - x1269 - x1270 >= -2
 c2538_window1269: x1269 + x1270 + x1271 >= 1
 c2539_window1269: - x1269 - x1270 - x1271 >= -2
 c2540_window1270: x1270 + x1271 + x1272 >= 1
 c2541_window1270: - x1270 - x1271 - x1272 >= -2
 c2542_window1271: x1271 + x1272 + x1273 >= 1
 c2543_window1271: - x1271 - x1272 - x1273 >= -2
 c2544_window1272: x1272 + x1273 + x1274 >= 1
 c2545_window1272: - x1272 - x1273 - x1274 >= -2
 c2546_window1273: x1273 + x1274 + x1275 >= 1
 c2547_window1273: - x1273 - x1274 - x1275 >= -2
 c2548_window1274: x1274 + x1275 + x1276 >= 1
 c2549_window1274: - x1274 - x1275 - x1276 >= -2
 c2550_window1275: x1275 + x1276 + x1277 >= 1
 c2551_window1275: - x1275 - x1276 - x1277 >= -2
 c2552_window1276: x1276 + x1277 + x1278 >= 1
 c2553_window1276: - x1276 - x1277 - x1278 >= -2
 c2554_window1277: x1277 + x1278 + x1279 >= 1
 c2555_window1277: - x1277 - x1278 - x1279 >= -2
 c2556_window1278: x1278 + x1279 + x1280 >= 1
 c2557_window1278: - x1278 - x1279 - x1280 >= -2
 c2558_window1279: x1279 + x1280 + x1281 >= 1
 c2559_window1279: - x1279 - x1280 - x1281 >= -2
 c2560_window1280: x1280 + x1281 + x1282 >= 1
 c2561_window1280: - x1280 - x1281 - x1282 >= -2
 c2562_window1281: x1281 + x1282 + x1283 >= 1
 c2563_window1281: - x1281 - x1282 - x1283 >= -2
 c2564_window1282: x1282 + x1283 + x1284 >= 1
 c2565_window1282: - x1282 - x1283 - x1284 >= -2
 c2566_window1283: x1283 + x1284 + x1285 >= 1
 c2567_window1283: - x1283 - x1284 - x1285 >= -2
 c2568_window1284: x1284 + x1285 + x1286 >= 1
 c2569_window1284: - x1284 - x1285 - x1286 >= -2
 c2570_window1285: x1285 + x1286 + x1287 >= 1
 c2571_window1285: - x1285 - x1286 - x1287 >= -2
 c2572_window1286: x1286 + x1287 + x1288 >= 1
 c2573_window1286: - x1286 - x1287 - x1288 >= -2
 c2574_window1287: x1287 + x1288 + x1289 >= 1
 c2575_window1287: - x1287 - x1288 - x1289 >= -2
 c2576_window1288: x1288 + x1289 + x1290 >= 1
 c2577_window1288: - x1288 - x1289 - x1290 >= -2
 c2578_window1289: x1289 + x1290 + x1291 >= 1
 c2579_window1289: - x1289 - x1290 - x1291 >= -2
 c2580_window1290: x1290 + x1291 + x1292 >= 1
 c2581_window1290: - x1290 - x1291 - x1292 >= -2
 c2582_window1291: x1291 + x1292 + x1293 >= 1
 c2583_window1291: - x1291 - x1292 - x1293 >= -2
 c2584_window1292: x1292 + x1293 + x1294 >= 1
 c2585_window1292: - x1292 - x1293 - x1294 >= -2
 c2586_window1293: x1293 + x1294 + x1295 >= 1
 c2587_window1293: - x1293 - x1294 - x1295 >= -2
 c2588_window1294: x1294 + x1295 + x1296 >= 1
 c2589_window1294: - x1294 - x1295 - x1296 >= -2
 c2590_window1295: x1295 + x1296 + x1297 >= 1
 c2591_window1295: - x1295 - x1296 - x1297 >= -2
 c2592_window1296: x1296 + x1297 + x1298 >= 1
 c2593_window1296: - x1296 - x1297 - x1298 >= -2
 c2594_window1297: x1297 + x1298 + x1299 >= 1
 c2595_window1297: - x1297 - x1298 - x1299 >= -2
 c2596_window1298: x1298 + x1299 + x1300 >= 1
 c2597_window1298: - x1298 - x1299 - x1300 >= -2
 c2598_window1299: x1299 + x1300 + x1301 >= 1
 c2599_window1299: - x1299 - x1300 - x1301 >= -2
 c2600_window1300: x1300 + x1301 + x1302 >= 1
 c2601_window1300: - x1300 - x1301 - x1302 >= -2
 c2602_window1301: x1301 + x1302 + x1303 >= 1
 c2603_window1301: - x1301 - x1302 - x1303 >= -2
 c2604_window1302: x1302 + x1303 + x1304 >= 1
 c2605_window1302: - x1302 - x1303 - x1304 >= -2
 c2606_window1303: x1303 + x1304 + x1305 >= 1
 c2607_window1303: - x1303 - x1304 - x1305 >= -2
 c2608_window1304: x1304 + x1305 + x1306 >= 1
 c2609_window1304: - x1304 - x1305 - x1306 >= -2
 c2610_window1305: x1305 + x1306 + x1307 >= 1
 c2611_window1305: - x1305 - x1306 - x1307 >= -2
 c2612_window1306: x1306 + x1307 + x1308 >= 1
 c2613_window1306: - x1306 - x1307 - x1308 >= -2
 c2614_window1307: x1307 + x1308 + x1309 >= 1
 c2615_window1307: - x1307 - x1308 - x1309 >= -2
 c2616_window1308: x1308 + x1309 + x1310 >= 1
 c2617_window1308: - x1308 - x1309 - x1310 >= -2
 c2618_window1309: x1309 + x1310 + x1311 >= 1
 c2619_window1309: - x1309 - x1310 - x1311 >= -2
 c2620_window1310: x1310 + x1311 + x1312 >= 1
 c2621_window1310: - x1310 - x1311 - x1312 >= -2
 c2622_window1311: x1311 + x1312 + x1313 >= 1
 c2623_window1311: - x1311 - x1312 - x1313 >= -2
 c2624_window1312: x1312 + x1313 + x1314 >= 1
 c2625_window1312: - x1312 - x1313 - x1314 >= -2
 c2626_window1313: x1313 + x1314 + x1315 >= 1
 c2627_window1313: - x1313 - x1314 - x1315 >= -2
 c2628_window1314: x1314 + x1315 + x1316 >= 1
 c2629_window1314: - x1314 - x1315 - x1316 >= -2
 c2630_window1315: x1315 + x1316 + x1317 >= 1
 c2631_window1315: - x1315 - x1316 - x1317 >= -2
 c2632_window1316: x1316 + x1317 + x1318 >= 1
 c2633_window1316: - x1316 - x1317 - x1318 >= -2
 c2634_window1317: x1317 + x1318 + x1319 >= 1
 c2635_window1317: - x1317 - x1318 - x1319 >= -2
 c2636_window1318: x1318 + x1319 + x1320 >= 1
 c2637_window1318: - x1318 - x1319 - x1320 >= -2
 c2638_window1319: x1319 + x1320 + x1321 >= 1
 c2639_window1319: - x1319 - x1320 - x1321 >= -2
 c2640_window1320: x1320 + x1321 + x1322 >= 1
 c2641_window1320: - x1320 - x1321 - x1322 >= -2
 c2642_window1321: x1321 + x1322 + x1323 >= 1
 c2643_window1321: - x1321 - x1322 - x1323 >= -2
 c2644_window1322: x1322 + x1323 + x1324 >= 1
 c2645_window1322: - x1322 - x1323 - x1324 >= -2
 c2646_window1323: x1323 + x1324 + x1325 >= 1
 c2647_window1323: - x1323 - x1324 - x1325 >= -2
 c2648_window1324: x1324 + x1325 + x1326 >= 1
 c2649_window1324: - x1324 - x1325 - x1326 >= -2
 c2650_window1325: x1325 + x1326 + x1327 >= 1
 c2651_window1325: - x1325 - x1326 - x1327 >= -2
 c2652_window1326: x1326 + x1327 + x1328 >= 1
 c2653_window1326: - x1326 - x1327 - x1328 >= -2
 c2654_window1327: x1327 + x1328 + x1329 >= 1
 c2655_window1327: - x1327 - x1328 - x1329 >= -2
 c2656_window1328: x1328 + x1329 + x1330 >= 1
 c2657_window1328: - x1328 - x1329 - x1330 >= -2
 c2658_window1329: x1329 + x1330 + x1331 >= 1
 c2659_window1329: - x1329 - x1330 - x1331 >= -2
 c2660_window1330: x1330 + x1331 + x1332 >= 1
 c2661_window1330: - x1330 - x1331 - x1332 >= -2
 c2662_window1331: x1331 + x1332 + x1333 >= 1
 c2663_window1331: - x1331 - x1332 - x1333 >= -2
 c2664_window1332: x1332 + x1333 + x1334 >= 1
 c2665_window1332: - x1332 - x1333 - x1334 >= -2
 c2666_window1333: x1333 + x1334 + x1335 >= 1
 c2667_window1333: - x1333 - x1334 - x1335 >= -2
 c2668_window1334: x1334 + x1335 + x1336 >= 1
 c2669_window1334: - x1334 - x1335 - x1336 >= -2
 c2670_window1335: x1335 + x1336 + x1337 >= 1
 c2671_window1335: - x1335 - x1336 - x1337 >= -2
 c2672_window1336: x1336 + x1337 + x1338 >= 1
 c2673_window1336: - x1336 - x1337 - x1338 >= -2
 c2674_window1337: x1337 + x1338 + x1339 >= 1
 c2675_window1337: - x1337 - x1338 - x1339 >= -2
 c2676_window1338: x1338 + x1339 + x1340 >= 1
 c2677_window1338: - x1338 - x1339 - x1340 >= -2
 c2678_window1339: x1339 + x1340 + x1341 >= 1
 c2679_window1339: - x1339 - x1340 - x1341 >= -2
 c2680_window1340: x1340 + x1341 + x1342 >= 1
 c2681_window1340: - x1340 - x1341 - x1342 >= -2
 c2682_window1341: x1341 + x1342 + x1343 >= 1
 c2683_window1341: - x1341 - x1342 - x1343 >= -2
 c2684_window1342: x1342 + x1343 + x1344 >= 1
 c2685_window1342: - x1342 - x1343 - x1344 >= -2
 c2686_window1343: x1343 + x1344 + x1345 >= 1
 c2687_window1343: - x1343 - x1344 - x1345 >= -2
 c2688_window1344: x1344 + x1345 + x1346 >= 1
 c2689_window1344: - x1344 - x1345 - x1346 >= -2
 c2690_window1345: x1345 + x1346 + x1347 >= 1
 c2691_window1345: - x1345 - x1346 - x1347 >= -2
 c2692_window1346: x1346 + x1347 + x1348 >= 1
 c2693_window1346: - x1346 - x1347 - x1348 >= -2
 c2694_window1347: x1347 + x1348 + x1349 >= 1
 c2695_window1347: - x1347 - x1348 - x1349 >= -2
 c2696_window1348: x1348 + x1349 + x1350 >= 1
 c2697_window1348: - x1348 - x1349 - x1350 >= -2
 c2698_window1349: x1349 + x1350 + x1351 >= 1
 c2699_window1349: - x1349 - x1350 - x1351 >= -2
 c2700_window1350: x1350 + x1351 + x1352 >= 1
 c2701_window1350: - x1350 - x1351 - x1352 >= -2
 c2702_window1351: x1351 + x1352 + x1353 >= 1
 c2703_window1351: - x1351 - x1352 - x1353 >= -2
 c2704_window1352: x1352 + x1353 + x1354 >= 1
 c2705_window1352: - x1352 - x1353 - x1354 >= -2
 c2706_window1353: x1353 + x1354 + x1355 >= 1
 c2707_window1353: - x1353 - x1354 - x1355 >= -2
 c2708_window1354: x1354 + x1355 + x1356 >= 1
 c2709_window1354: - x1354 - x1355 - x1356 >= -2
 c2710_window1355: x1355 + x1356 + x1357 >= 1
 c2711_window1355: - x1355 - x1356 - x1357 >= -2
 c2712_window1356: x1356 + x1357 + x1358 >= 1
 c2713_window1356: - x1356 - x1357 - x1358 >= -2
 c2714_window1357: x1357 + x1358 + x1359 >= 1
 c2715_window1357: - x1357 - x1358 - x1359 >= -2
 c2716_window1358: x1358 + x1359 + x1360 >= 1
 c2717_window1358: - x1358 - x1359 - x1360 >= -2
 c2718_window1359: x1359 + x1360 + x1361 >= 1
 c2719_window1359: - x1359 - x1360 - x1361 >= -2
 c2720_window1360: x1360 + x1361 + x1362 >= 1
 c2721_window1360: - x1360 - x1361 - x1362 >= -2
 c2722_window1361: x1361 + x1362 + x1363 >= 1
 c2723_window1361: - x1361 - x1362 - x1363 >= -2
 c2724_window1362: x1362 + x1363 + x1364 >= 1
 c2725_window1362: - x1362 - x1363 - x1364 >= -2
 c2726_window1363: x1363 + x1364 + x1365 >= 1
 c2727_window1363: - x1363 - x1364 - x1365 >= -2
 c2728_window1364: x1364 + x1365 + x1366 >= 1
 c2729_window1364: - x1364 - x1365 - x1366 >= -2
 c2730_window1365: x1365 + x1366 + x1367 >= 1
 c2731_window1365: - x1365 - x1366 - x1367 >= -2
 c2732_window1366: x1366 + x1367 + x1368 >= 1
 c2733_window1366: - x1366 - x1367 - x1368 >= -2
 c2734_window1367: x1367 + x1368 + x1369 >= 1
 c2735_window1367: - x1367 - x1368 - x1369 >= -2
 c2736_window1368: x1368 + x1369 + x1370 >= 1
 c2737_window1368: - x1368 - x1369 - x1370 >= -2
 c2738_window1369: x1369 + x1370 + x1371 >= 1
 c2739_window1369: - x1369 - x1370 - x1371 >= -2
 c2740_window1370: x1370 + x1371 + x1372 >= 1
 c2741_window1370: - x1370 - x1371 - x1372 >= -2
 c2742_window1371: x1371 + x1372 + x1373 >= 1
 c2743_window1371: - x1371 - x1372 - x1373 >= -2
 c2744_window1372: x1372 + x1373 + x1374 >= 1
 c2745_window1372: - x1372 - x1373 - x1374 >= -2
 c2746_window1373: x1373 + x1374 + x1375 >= 1
 c2747_window1373: - x1373 - x1374 - x1375 >= -2
 c2748_window1374: x1374 + x1375 + x1376 >= 1
 c2749_window1374: - x1374 - x1375 - x1376 >= -2
 c2750_window1375: x1375 + x1376 + x1377 >= 1
 c2751_window1375: - x1375 - x1376 - x1377 >= -2
 c2752_window1376: x1376 + x1377 + x1378 >= 1
 c2753_window1376: - x1376 - x1377 - x1378 >= -2
 c2754_window1377: x1377 + x1378 + x1379 >= 1
 c2755_window1377: - x1377 - x1378 - x1379 >= -2
 c2756_window1378: x1378 + x1379 + x1380 >= 1
 c2757_window1378: - x1378 - x1379 - x1380 >= -2
 c2758_window1379: x1379 + x1380 + x1381 >= 1
 c2759_window1379: - x1379 - x1380 - x1381 >= -2
 c2760_window1380: x1380 + x1381 + x1382 >= 1
 c2761_window1380: - x1380 - x1381 - x1382 >= -2
 c2762_window1381: x1381 + x1382 + x1383 >= 1
 c2763_window1381: - x1381 - x1382 - x1383 >= -2
 c2764_window1382: x1382 + x1383 + x1384 >= 1
 c2765_window1382: - x1382 - x1383 - x1384 >= -2
 c2766_window1383: x1383 + x1384 + x1385 >= 1
 c2767_window1383: - x1383 - x1384 - x1385 >= -2
 c2768_window1384: x1384 + x1385 + x1386 >= 1
 c2769_window1384: - x1384 - x1385 - x1386 >= -2
 c2770_window1385: x1385 + x1386 + x1387 >= 1
 c2771_window1385: - x1385 - x1386 - x1387 >= -2
 c2772_window1386: x1386 + x1387 + x1388 >= 1
 c2773_window1386: - x1386 - x1387 - x1388 >= -2
 c2774_window1387: x1387 + x1388 + x1389 >= 1
 c2775_window1387: - x1387 - x1388 - x1389 >= -2
 c2776_window1388: x1388 + x1389 + x1390 >= 1
 c2777_window1388: - x1388 - x1389 - x1390 >= -2
 c2778_window1389: x1389 + x1390 + x1391 >= 1
 c2779_window1389: - x1389 - x1390 - x1391 >= -2
 c2780_window1390: x1390 + x1391 + x1392 >= 1
 c2781_window1390: - x1390 - x1391 - x1392 >= -2
 c2782_window1391: x1391 + x1392 + x1393 >= 1
 c2783_window1391: - x1391 - x1392 - x1393 >= -2
 c2784_window1392: x1392 + x1393 + x1394 >= 1
 c2785_window1392: - x1392 - x1393 - x1394 >= -2
 c2786_window1393: x1393 + x1394 + x1395 >= 1
 c2787_window1393: - x1393 - x1394 - x1395 >= -2
 c2788_window1394: x1394 + x1395 + x1396 >= 1
 c2789_window1394: - x1394 - x1395 - x1396 >= -2
 c2790_window1395: x1395 + x1396 + x1397 >= 1
 c2791_window1395: - x1395 - x1396 - x1397 >= -2
 c2792_window1396: x1396 + x1397 + x1398 >= 1
 c2793_window1396: - x1396 - x1397 - x1398 >= -2
 c2794_window1397: x1397 + x1398 + x1399 >= 1
 c2795_window1397: - x1397 - x1398 - x1399 >= -2
 c2796_window1398: x1398 + x1399 + x1400 >= 1
 c2797_window1398: - x1398 - x1399 - x1400 >= -2
 c2798_window1399: x1399 + x1400 + x1401 >= 1
 c2799_window1399: - x1399 - x1400 - x1401 >= -2
 c2800_window1400: x1400 + x1401 + x1402 >= 1
 c2801_window1400: - x1400 - x1401 - x1402 >= -2
 c2802_window1401: x1401 + x1402 + x1403 >= 1
 c2803_window1401: - x1401 - x1402 - x1403 >= -2
 c2804_window1402: x1402 + x1403 + x1404 >= 1
 c2805_window1402: - x1402 - x1403 - x1404 >= -2
 c2806_window1403: x1403 + x1404 + x1405 >= 1
 c2807_window1403: - x1403 - x1404 - x1405 >= -2
 c2808_window1404: x1404 + x1405 + x1406 >= 1
 c2809_window1404: - x1404 - x1405 - x1406 >= -2
 c2810_window1405: x1405 + x1406 + x1407 >= 1
 c2811_window1405: - x1405 - x1406 - x1407 >= -2
 c2812_window1406: x1406 + x1407 + x1408 >= 1
 c2813_window1406: - x1406 - x1407 - x1408 >= -2
 c2814_window1407: x1407 + x1408 + x1409 >= 1
 c2815_window1407: - x1407 - x1408 - x1409 >= -2
 c2816_window1408: x1408 + x1409 + x1410 >= 1
 c2817_window1408: - x1408 - x1409 - x1410 >= -2
 c2818_window1409: x1409 + x1410 + x1411 >= 1
 c2819_window1409: - x1409 - x1410 - x1411 >= -2
 c2820_window1410: x1410 + x1411 + x1412 >= 1
 c2821_window1410: - x1410 - x1411 - x1412 >= -2
 c2822_window1411: x1411 + x1412 + x1413 >= 1
 c2823_window1411: - x1411 - x1412 - x1413 >= -2
 c2824_window1412: x1412 + x1413 + x1414 >= 1
 c2825_window1412: - x1412 - x1413 - x1414 >= -2
 c2826_window1413: x1413 + x1414 + x1415 >= 1
 c2827_window1413: - x1413 - x1414 - x1415 >= -2
 c2828_window1414: x1414 + x1415 + x1416 >= 1
 c2829_window1414: - x1414 - x1415 - x1416 >= -2
 c2830_window1415: x1415 + x1416 + x1417 >= 1
 c2831_window1415: - x1415 - x1416 - x1417 >= -2
 c2832_window1416: x1416 + x1417 + x1418 >= 1
 c2833_window1416: - x1416 - x1417 - x1418 >= -2
 c2834_window1417: x1417 + x1418 + x1419 >= 1
 c2835_window1417: - x1417 - x1418 - x1419 >= -2
 c2836_window1418: x1418 + x1419 + x1420 >= 1
 c2837_window1418: - x1418 - x1419 - x1420 >= -2
 c2838_window1419: x1419 + x1420 + x1421 >= 1
 c2839_window1419: - x1419 - x1420 - x1421 >= -2
 c2840_window1420: x1420 + x1421 + x1422 >= 1
 c2841_window1420: - x1420 - x1421 - x1422 >= -2
 c2842_window1421: x1421 + x1422 + x1423 >= 1
 c2843_window1421: - x1421 - x1422 - x1423 >= -2
 c2844_window1422: x1422 + x1423 + x1424 >= 1
 c2845_window1422: - x1422 - x1423 - x1424 >= -2
 c2846_window1423: x1423 + x1424 + x1425 >= 1
 c2847_window1423: - x1423 - x1424 - x1425 >= -2
 c2848_window1424: x1424 + x1425 + x1426 >= 1
 c2849_window1424: - x1424 - x1425 - x1426 >= -2
 c2850_window1425: x1425 + x1426 + x1427 >= 1
 c2851_window1425: - x1425 - x1426 - x1427 >= -2
 c2852_window1426: x1426 + x1427 + x1428 >= 1
 c2853_window1426: - x1426 - x1427 - x1428 >= -2
 c2854_window1427: x1427 + x1428 + x1429 >= 1
 c2855_window1427: - x1427 - x1428 - x1429 >= -2
 c2856_window1428: x1428 + x1429 + x1430 >= 1
 c2857_window1428: - x1428 - x1429 - x1430 >= -2
 c2858_window1429: x1429 + x1430 + x1431 >= 1
 c2859_window1429: - x1429 - x1430 - x1431 >= -2
 c2860_window1430: x1430 + x1431 + x1432 >= 1
 c2861_window1430: - x1430 - x1431 - x1432 >= -2
 c2862_window1431: x1431 + x1432 + x1433 >= 1
 c2863_window1431: - x1431 - x1432 - x1433 >= -2
 c2864_window1432: x1432 + x1433 + x1434 >= 1
 c2865_window1432: - x1432 - x1433 - x1434 >= -2
 c2866_window1433: x1433 + x1434 + x1435 >= 1
 c2867_window1433: - x1433 - x1434 - x1435 >= -2
 c2868_window1434: x1434 + x1435 + x1436 >= 1
 c2869_window1434: - x1434 - x1435 - x1436 >= -2
 c2870_window1435: x1435 + x1436 + x1437 >= 1
 c2871_window1435: - x1435 - x1436 - x1437 >= -2
 c2872_window1436: x1436 + x1437 + x1438 >= 1
 c2873_window1436: - x1436 - x1437 - x1438 >= -2
 c2874_window1437: x1437 + x1438 + x1439 >= 1
 c2875_window1437: - x1437 - x1438 - x1439 >= -2
 c2876_window1438: x1438 + x1439 + x1440 >= 1
 c2877_window1438: - x1438 - x1439 - x1440 >= -2
 c2878_window1439: x1439 + x1440 + x1441 >= 1
 c2879_window1439: - x1439 - x1440 - x1441 >= -2
 c2880_window1440: x1440 + x1441 + x1442 >= 1
 c2881_window1440: - x1440 - x1441 - x1442 >= -2
 c2882_window1441: x1441 + x1442 + x1443 >= 1
 c2883_window1441: - x1441 - x1442 - x1443 >= -2
 c2884_window1442: x1442 + x1443 + x1444 >= 1
 c2885_window1442: - x1442 - x1443 - x1444 >= -2
 c2886_window1443: x1443 + x1444 + x1445 >= 1
 c2887_window1443: - x1443 - x1444 - x1445 >= -2
 c2888_window1444: x1444 + x1445 + x1446 >= 1
 c2889_window1444: - x1444 - x1445 - x1446 >= -2
 c2890_window1445: x1445 + x1446 + x1447 >= 1
 c2891_window1445: - x1445 - x1446 - x1447 >= -2
 c2892_window1446: x1446 + x1447 + x1448 >= 1
 c2893_window1446: - x1446 - x1447 - x1448 >= -2
 c2894_window1447: x1447 + x1448 + x1449 >= 1
 c2895_window1447: - x1447 - x1448 - x1449 >= -2
 c2896_window1448: x1448 + x1449 + x1450 >= 1
 c2897_window1448: - x1448 - x1449 - x1450 >= -2
 c2898_window1449: x1449 + x1450 + x1451 >= 1
 c2899_window1449: - x1449 - x1450 - x1451 >= -2
 c2900_window1450: x1450 + x1451 + x1452 >= 1
 c2901_window1450: - x1450 - x1451 - x1452 >= -2
 c2902_window1451: x1451 + x1452 + x1453 >= 1
 c2903_window1451: - x1451 - x1452 - x1453 >= -2
 c2904_window1452: x1452 + x1453 + x1454 >= 1
 c2905_window1452: - x1452 - x1453 - x1454 >= -2
 c2906_window1453: x1453 + x1454 + x1455 >= 1
 c2907_window1453: - x1453 - x1454 - x1455 >= -2
 c2908_window1454: x1454 + x1455 + x1456 >= 1
 c2909_window1454: - x1454 - x1455 - x1456 >= -2
 c2910_window1455: x1455 + x1456 + x1457 >= 1
 c2911_window1455: - x1455 - x1456 - x1457 >= -2
 c2912_window1456: x1456 + x1457 + x1458 >= 1
 c2913_window1456: - x1456 - x1457 - x1458 >= -2
 c2914_window1457: x1457 + x1458 + x1459 >= 1
 c2915_window1457: - x1457 - x1458 - x1459 >= -2
 c2916_window1458: x1458 + x1459 + x1460 >= 1
 c2917_window1458: - x1458 - x1459 - x1460 >= -2
 c2918_window1459: x1459 + x1460 + x1461 >= 1
 c2919_window1459: - x1459 - x1460 - x1461 >= -2
 c2920_window1460: x1460 + x1461 + x1462 >= 1
 c2921_window1460: - x1460 - x1461 - x1462 >= -2
 c2922_window1461: x1461 + x1462 + x1463 >= 1
 c2923_window1461: - x1461 - x1462 - x1463 >= -2
 c2924_window1462: x1462 + x1463 + x1464 >= 1
 c2925_window1462: - x1462 - x1463 - x1464 >= -2
 c2926_window1463: x1463 + x1464 + x1465 >= 1
 c2927_window1463: - x1463 - x1464 - x1465 >= -2
 c2928_window1464: x1464 + x1465 + x1466 >= 1
 c2929_window1464: - x1464 - x1465 - x1466 >= -2
 c2930_window1465: x1465 + x1466 + x1467 >= 1
 c2931_window1465: - x1465 - x1466 - x1467 >= -2
 c2932_window1466: x1466 + x1467 + x1468 >= 1
 c2933_window1466: - x1466 - x1467 - x1468 >= -2
 c2934_window1467: x1467 + x1468 + x1469 >= 1
 c2935_window1467: - x1467 - x1468 - x1469 >= -2
 c2936_window1468: x1468 + x1469 + x1470 >= 1
 c2937_window1468: - x1468 - x1469 - x1470 >= -2
 c2938_window1469: x1469 + x1470 + x1471 >= 1
 c2939_window1469: - x1469 - x1470 - x1471 >= -2
 c2940_window1470: x1470 + x1471 + x1472 >= 1
 c2941_window1470: - x1470 - x1471 - x1472 >= -2
 c2942_window1471: x1471 + x1472 + x1473 >= 1
 c2943_window1471: - x1471 - x1472 - x1473 >= -2
 c2944_window1472: x1472 + x1473 + x1474 >= 1
 c2945_window1472: - x1472 - x1473 - x1474 >= -2
 c2946_window1473: x1473 + x1474 + x1475 >= 1
 c2947_window1473: - x1473 - x1474 - x1475 >= -2
 c2948_window1474: x1474 + x1475 + x1476 >= 1
 c2949_window1474: - x1474 - x1475 - x1476 >= -2
 c2950_window1475: x1475 + x1476 + x1477 >= 1
 c2951_window1475: - x1475 - x1476 - x1477 >= -2
 c2952_window1476: x1476 + x1477 + x1478 >= 1
 c2953_window1476: - x1476 - x1477 - x1478 >= -2
 c2954_window1477: x1477 + x1478 + x1479 >= 1
 c2955_window1477: - x1477 - x1478 - x1479 >= -2
 c2956_window1478: x1478 + x1479 + x1480 >= 1
 c2957_window1478: - x1478 - x1479 - x1480 >= -2
 c2958_window1479: x1479 + x1480 + x1481 >= 1
 c2959_window1479: - x1479 - x1480 - x1481 >= -2
 c2960_window1480: x1480 + x1481 + x1482 >= 1
 c2961_window1480: - x1480 - x1481 - x1482 >= -2
 c2962_window1481: x1481 + x1482 + x1483 >= 1
 c2963_window1481: - x1481 - x1482 - x1483 >= -2
 c2964_window1482: x1482 + x1483 + x1484 >= 1
 c2965_window1482: - x1482 - x1483 - x1484 >= -2
 c2966_window1483: x1483 + x1484 + x1485 >= 1
 c2967_window1483: - x1483 - x1484 - x1485 >= -2
 c2968_window1484: x1484 + x1485 + x1486 >= 1
 c2969_window1484: - x1484 - x1485 - x1486 >= -2
 c2970_window1485: x1485 + x1486 + x1487 >= 1
 c2971_window1485: - x1485 - x1486 - x1487 >= -2
 c2972_window1486: x1486 + x1487 + x1488 >= 1
 c2973_window1486: - x1486 - x1487 - x1488 >= -2
 c2974_window1487: x1487 + x1488 + x1489 >= 1
 c2975_window1487: - x1487 - x1488 - x1489 >= -2
 c2976_window1488: x1488 + x1489 + x1490 >= 1
 c2977_window1488: - x1488 - x1489 - x1490 >= -2
 c2978_window1489: x1489 + x1490 + x1491 >= 1
 c2979_window1489: - x1489 - x1490 - x1491 >= -2
 c2980_window1490: x1490 + x1491 + x1492 >= 1
 c2981_window1490: - x1490 - x1491 - x1492 >= -2
 c2982_window1491: x1491 + x1492 + x1493 >= 1
 c2983_window1491: - x1491 - x1492 - x1493 >= -2
 c2984_window1492: x1492 + x1493 + x1494 >= 1
 c2985_window1492: - x1492 - x1493 - x1494 >= -2
 c2986_window1493: x1493 + x1494 + x1495 >= 1
 c2987_window1493: - x1493 - x1494 - x1495 >= -2
 c2988_window1494: x1494 + x1495 + x1496 >= 1
 c2989_window1494: - x1494 - x1495 - x1496 >= -2
 c2990_window1495: x1495 + x1496 + x1497 >= 1
 c2991_window1495: - x1495 - x1496 - x1497 >= -2
 c2992_window1496: x1496 + x1497 + x1498 >= 1
 c2993_window1496: - x1496 - x1497 - x1498 >= -2
 c2994_window1497: x1497 + x1498 + x1499 >= 1
 c2995_window1497: - x1497 - x1498 - x1499 >= -2
 c2996_window1498: x1498 + x1499 + x1500 >= 1
 c2997_window1498: - x1498 - x1499 - x1500 >= -2
 c2998_window1499: x1499 + x1500 + x1501 >= 1
 c2999_window1499: - x1499 - x1500 - x1501 >= -2
 c3000_window1500: x1500 + x1501 + x1502 >= 1
 c3001_window1500: - x1500 - x1501 - x1502 >= -2
 c3002_window1501: x1501 + x1502 + x1503 >= 1
 c3003_window1501: - x1501 - x1502 - x1503 >= -2
 c3004_window1502: x1502 + x1503 + x1504 >= 1
 c3005_window1502: - x1502 - x1503 - x1504 >= -2
 c3006_window1503: x1503 + x1504 + x1505 >= 1
 c3007_window1503: - x1503 - x1504 - x1505 >= -2
 c3008_window1504: x1504 + x1505 + x1506 >= 1
 c3009_window1504: - x1504 - x1505 - x1506 >= -2
 c3010_window1505: x1505 + x1506 + x1507 >= 1
 c3011_window1505: - x1505 - x1506 - x1507 >= -2
 c3012_window1506: x1506 + x1507 + x1508 >= 1
 c3013_window1506: - x1506 - x1507 - x1508 >= -2
 c3014_window1507: x1507 + x1508 + x1509 >= 1
 c3015_window1507: - x1507 - x1508 - x1509 >= -2
 c3016_window1508: x1508 + x1509 + x1510 >= 1
 c3017_window1508: - x1508 - x1509 - x1510 >= -2
 c3018_window1509: x1509 + x1510 + x1511 >= 1
 c3019_window1509: - x1509 - x1510 - x1511 >= -2
 c3020_window1510: x1510 + x1511 + x1512 >= 1
 c3021_window1510: - x1510 - x1511 - x1512 >= -2
 c3022_window1511: x1511 + x1512 + x1513 >= 1
 c3023_window1511: - x1511 - x1512 - x1513 >= -2
 c3024_window1512: x1512 + x1513 + x1514 >= 1
 c3025_window1512: - x1512 - x1513 - x1514 >= -2
 c3026_window1513: x1513 + x1514 + x1515 >= 1
 c3027_window1513: - x1513 - x1514 - x1515 >= -2
 c3028_window1514: x1514 + x1515 + x1516 >= 1
 c3029_window1514: - x1514 - x1515 - x1516 >= -2
 c3030_window1515: x1515 + x1516 + x1517 >= 1
 c3031_window1515: - x1515 - x1516 - x1517 >= -2
 c3032_window1516: x1516 + x1517 + x1518 >= 1
 c3033_window1516: - x1516 - x1517 - x1518 >= -2
 c3034_window1517: x1517 + x1518 + x1519 >= 1
 c3035_window1517: - x1517 - x1518 - x1519 >= -2
 c3036_window1518: x1518 + x1519 + x1520 >= 1
 c3037_window1518: - x1518 - x1519 - x1520 >= -2
 c3038_window1519: x1519 + x1520 + x1521 >= 1
 c3039_window1519: - x1519 - x1520 - x1521 >= -2
 c3040_window1520: x1520 + x1521 + x1522 >= 1
 c3041_window1520: - x1520 - x1521 - x1522 >= -2
 c3042_window1521: x1521 + x1522 + x1523 >= 1
 c3043_window1521: - x1521 - x1522 - x1523 >= -2
 c3044_window1522: x1522 + x1523 + x1524 >= 1
 c3045_window1522: - x1522 - x1523 - x1524 >= -2
 c3046_window1523: x1523 + x1524 + x1525 >= 1
 c3047_window1523: - x1523 - x1524 - x1525 >= -2
 c3048_window1524: x1524 + x1525 + x1526 >= 1
 c3049_window1524: - x1524 - x1525 - x1526 >= -2
 c3050_window1525: x1525 + x1526 + x1527 >= 1
 c3051_window1525: - x1525 - x1526 - x1527 >= -2
 c3052_window1526: x1526 + x1527 + x1528 >= 1
 c3053_window1526: - x1526 - x1527 - x1528 >= -2
 c3054_window1527: x1527 + x1528 + x1529 >= 1
 c3055_window1527: - x1527 - x1528 - x1529 >= -2
 c3056_window1528: x1528 + x1529 + x1530 >= 1
 c3057_window1528: - x1528 - x1529 - x1530 >= -2
 c3058_window1529: x1529 + x1530 + x1531 >= 1
 c3059_window1529: - x1529 - x1530 - x1531 >= -2
 c3060_window1530: x1530 + x1531 + x1532 >= 1
 c3061_window1530: - x1530 - x1531 - x1532 >= -2
 c3062_window1531: x1531 + x1532 + x1533 >= 1
 c3063_window1531: - x1531 - x1532 - x1533 >= -2
 c3064_window1532: x1532 + x1533 + x1534 >= 1
 c3065_window1532: - x1532 - x1533 - x1534 >= -2
 c3066_window1533: x1533 + x1534 + x1535 >= 1
 c3067_window1533: - x1533 - x1534 - x1535 >= -2
 c3068_window1534: x1534 + x1535 + x1536 >= 1
 c3069_window1534: - x1534 - x1535 - x1536 >= -2
 c3070_window1535: x1535 + x1536 + x1537 >= 1
 c3071_window1535: - x1535 - x1536 - x1537 >= -2
 c3072_window1536: x1536 + x1537 + x1538 >= 1
 c3073_window1536: - x1536 - x1537 - x1538 >= -2
 c3074_window1537: x1537 + x1538 + x1539 >= 1
 c3075_window1537: - x1537 - x1538 - x1539 >= -2
 c3076_window1538: x1538 + x1539 + x1540 >= 1
 c3077_window1538: - x1538 - x1539 - x1540 >= -2
 c3078_window1539: x1539 + x1540 + x1541 >= 1
 c3079_window1539: - x1539 - x1540 - x1541 >= -2
 c3080_window1540: x1540 + x1541 + x1542 >= 1
 c3081_window1540: - x1540 - x1541 - x1542 >= -2
 c3082_window1541: x1541 + x1542 + x1543 >= 1
 c3083_window1541: - x1541 - x1542 - x1543 >= -2
 c3084_window1542: x1542 + x1543 + x1544 >= 1
 c3085_window1542: - x1542 - x1543 - x1544 >= -2
 c3086_window1543: x1543 + x1544 + x1545 >= 1
 c3087_window1543: - x1543 - x1544 - x1545 >= -2
 c3088_window1544: x1544 + x1545 + x1546 >= 1
 c3089_window1544: - x1544 - x1545 - x1546 >= -2
 c3090_window1545: x1545 + x1546 + x1547 >= 1
 c3091_window1545: - x1545 - x1546 - x1547 >= -2
 c3092_window1546: x1546 + x1547 + x1548 >= 1
 c3093_window1546: - x1546 - x1547 - x1548 >= -2
 c3094_window1547: x1547 + x1548 + x1549 >= 1
 c3095_window1547: - x1547 - x1548 - x1549 >= -2
 c3096_window1548: x1548 + x1549 + x1550 >= 1
 c3097_window1548: - x1548 - x1549 - x1550 >= -2
 c3098_window1549: x1549 + x1550 + x1551 >= 1
 c3099_window1549: - x1549 - x1550 - x1551 >= -2
 c3100_window1550: x1550 + x1551 + x1552 >= 1
 c3101_window1550: - x1550 - x1551 - x1552 >= -2
 c3102_window1551: x1551 + x1552 + x1553 >= 1
 c3103_window1551: - x1551 - x1552 - x1553 >= -2
 c3104_window1552: x1552 + x1553 + x1554 >= 1
 c3105_window1552: - x1552 - x1553 - x1554 >= -2
 c3106_window1553: x1553 + x1554 + x1555 >= 1
 c3107_window1553: - x1553 - x1554 - x1555 >= -2
 c3108_window1554: x1554 + x1555 + x1556 >= 1
 c3109_window1554: - x1554 - x1555 - x1556 >= -2
 c3110_window1555: x1555 + x1556 + x1557 >= 1
 c3111_window1555: - x1555 - x1556 - x1557 >= -2
 c3112_window1556: x1556 + x1557 + x1558 >= 1
 c3113_window1556: - x1556 - x1557 - x1558 >= -2
 c3114_window1557: x1557 + x1558 + x1559 >= 1
 c3115_window1557: - x1557 - x1558 - x1559 >= -2
 c3116_window1558: x1558 + x1559 + x1560 >= 1
 c3117_window1558: - x1558 - x1559 - x1560 >= -2
 c3118_window1559: x1559 + x1560 + x1561 >= 1
 c3119_window1559: - x1559 - x1560 - x1561 >= -2
 c3120_window1560: x1560 + x1561 + x1562 >= 1
 c3121_window1560: - x1560 - x1561 - x1562 >= -2
 c3122_window1561: x1561 + x1562 + x1563 >= 1
 c3123_window1561: - x1561 - x1562 - x1563 >= -2
 c3124_window1562: x1562 + x1563 + x1564 >= 1
 c3125_window1562: - x1562 - x1563 - x1564 >= -2
 c3126_window1563: x1563 + x1564 + x1565 >= 1
 c3127_window1563: - x1563 - x1564 - x1565 >= -2
 c3128_window1564: x1564 + x1565 + x1566 >= 1
 c3129_window1564: - x1564 - x1565 - x1566 >= -2
 c3130_window1565: x1565 + x1566 + x1567 >= 1
 c3131_window1565: - x1565 - x1566 - x1567 >= -2
 c3132_window1566: x1566 + x1567 + x1568 >= 1
 c3133_window1566: - x1566 - x1567 - x1568 >= -2
 c3134_window1567: x1567 + x1568 + x1569 >= 1
 c3135_window1567: - x1567 - x1568 - x1569 >= -2
 c3136_window1568: x1568 + x1569 + x1570 >= 1
 c3137_window1568: - x1568 - x1569 - x1570 >= -2
 c3138_window1569: x1569 + x1570 + x1571 >= 1
 c3139_window1569: - x1569 - x1570 - x1571 >= -2
 c3140_window1570: x1570 + x1571 + x1572 >= 1
 c3141_window1570: - x1570 - x1571 - x1572 >= -2
 c3142_window1571: x1571 + x1572 + x1573 >= 1
 c3143_window1571: - x1571 - x1572 - x1573 >= -2
 c3144_window1572: x1572 + x1573 + x1574 >= 1
 c3145_window1572: - x1572 - x1573 - x1574 >= -2
 c3146_window1573: x1573 + x1574 + x1575 >= 1
 c3147_window1573: - x1573 - x1574 - x1575 >= -2
 c3148_window1574: x1574 + x1575 + x1576 >= 1
 c3149_window1574: - x1574 - x1575 - x1576 >= -2
 c3150_window1575: x1575 + x1576 + x1577 >= 1
 c3151_window1575: - x1575 - x1576 - x1577 >= -2
 c3152_window1576: x1576 + x1577 + x1578 >= 1
 c3153_window1576: - x1576 - x1577 - x1578 >= -2
 c3154_window1577: x1577 + x1578 + x1579 >= 1
 c3155_window1577: - x1577 - x1578 - x1579 >= -2
 c3156_window1578: x1578 + x1579 + x1580 >= 1
 c3157_window1578: - x1578 - x1579 - x1580 >= -2
 c3158_window1579: x1579 + x1580 + x1581 >= 1
 c3159_window1579: - x1579 - x1580 - x1581 >= -2
 c3160_window1580: x1580 + x1581 + x1582 >= 1
 c3161_window1580: - x1580 - x1581 - x1582 >= -2
 c3162_window1581: x1581 + x1582 + x1583 >= 1
 c3163_window1581: - x1581 - x1582 - x1583 >= -2
 c3164_window1582: x1582 + x1583 + x1584 >= 1
 c3165_window1582: - x1582 - x1583 - x1584 >= -2
 c3166_window1583: x1583 + x1584 + x1585 >= 1
 c3167_window1583: - x1583 - x1584 - x1585 >= -2
 c3168_window1584: x1584 + x1585 + x1586 >= 1
 c3169_window1584: - x1584 - x1585 - x1586 >= -2
 c3170_window1585: x1585 + x1586 + x1587 >= 1
 c3171_window1585: - x1585 - x1586 - x1587 >= -2
 c3172_window1586: x1586 + x1587 + x1588 >= 1
 c3173_window1586: - x1586 - x1587 - x1588 >= -2
 c3174_window1587: x1587 + x1588 + x1589 >= 1
 c3175_window1587: - x1587 - x1588 - x1589 >= -2
 c3176_window1588: x1588 + x1589 + x1590 >= 1
 c3177_window1588: - x1588 - x1589 - x1590 >= -2
 c3178_window1589: x1589 + x1590 + x1591 >= 1
 c3179_window1589: - x1589 - x1590 - x1591 >= -2
 c3180_window1590: x1590 + x1591 + x1592 >= 1
 c3181_window1590: - x1590 - x1591 - x1592 >= -2
 c3182_window1591: x1591 + x1592 + x1593 >= 1
 c3183_window1591: - x1591 - x1592 - x1593 >= -2
 c3184_window1592: x1592 + x1593 + x1594 >= 1
 c3185_window1592: - x1592 - x1593 - x1594 >= -2
 c3186_window1593: x1593 + x1594 + x1595 >= 1
 c3187_window1593: - x1593 - x1594 - x1595 >= -2
 c3188_window1594: x1594 + x1595 + x1596 >= 1
 c3189_window1594: - x1594 - x1595 - x1596 >= -2
 c3190_window1595: x1595 + x1596 + x1597 >= 1
 c3191_window1595: - x1595 - x1596 - x1597 >= -2
 c3192_window1596: x1596 + x1597 + x1598 >= 1
 c3193_window1596: - x1596 - x1597 - x1598 >= -2
 c3194_window1597: x1597 + x1598 + x1599 >= 1
 c3195_window1597: - x1597 - x1598 - x1599 >= -2
 c3196_window1598: x1598 + x1599 + x1600 >= 1
 c3197_window1598: - x1598 - x1599 - x1600 >= -2
 c3198_window1599: x1599 + x1600 + x1601 >= 1
 c3199_window1599: - x1599 - x1600 - x1601 >= -2
 c3200_window1600: x1600 + x1601 + x1602 >= 1
 c3201_window1600: - x1600 - x1601 - x1602 >= -2
 c3202_window1601: x1601 + x1602 + x1603 >= 1
 c3203_window1601: - x1601 - x1602 - x1603 >= -2
 c3204_window1602: x1602 + x1603 + x1604 >= 1
 c3205_window1602: - x1602 - x1603 - x1604 >= -2
 c3206_window1603: x1603 + x1604 + x1605 >= 1
 c3207_window1603: - x1603 - x1604 - x1605 >= -2
 c3208_window1604: x1604 + x1605 + x1606 >= 1
 c3209_window1604: - x1604 - x1605 - x1606 >= -2
 c3210_window1605: x1605 + x1606 + x1607 >= 1
 c3211_window1605: - x1605 - x1606 - x1607 >= -2
 c3212_window1606: x1606 + x1607 + x1608 >= 1
 c3213_window1606: - x1606 - x1607 - x1608 >= -2
 c3214_window1607: x1607 + x1608 + x1609 >= 1
 c3215_window1607: - x1607 - x1608 - x1609 >= -2
 c3216_window1608: x1608 + x1609 + x1610 >= 1
 c3217_window1608: - x1608 - x1609 - x1610 >= -2
 c3218_window1609: x1609 + x1610 + x1611 >= 1
 c3219_window1609: - x1609 - x1610 - x1611 >= -2
 c3220_window1610: x1610 + x1611 + x1612 >= 1
 c3221_window1610: - x1610 - x1611 - x1612 >= -2
 c3222_window1611: x1611 + x1612 + x1613 >= 1
 c3223_window1611: - x1611 - x1612 - x1613 >= -2
 c3224_window1612: x1612 + x1613 + x1614 >= 1
 c3225_window1612: - x1612 - x1613 - x1614 >= -2
 c3226_window1613: x1613 + x1614 + x1615 >= 1
 c3227_window1613: - x1613 - x1614 - x1615 >= -2
 c3228_window1614: x1614 + x1615 + x1616 >= 1
 c3229_window1614: - x1614 - x1615 - x1616 >= -2
 c3230_window1615: x1615 + x1616 + x1617 >= 1
 c3231_window1615: - x1615 - x1616 - x1617 >= -2
 c3232_window1616: x1616 + x1617 + x1618 >= 1
 c3233_window1616: - x1616 - x1617 - x1618 >= -2
 c3234_window1617: x1617 + x1618 + x1619 >= 1
 c3235_window1617: - x1617 - x1618 - x1619 >= -2
 c3236_window1618: x1618 + x1619 + x1620 >= 1
 c3237_window1618: - x1618 - x1619 - x1620 >= -2
 c3238_window1619: x1619 + x1620 + x1621 >= 1
 c3239_window1619: - x1619 - x1620 - x1621 >= -2
 c3240_window1620: x1620 + x1621 + x1622 >= 1
 c3241_window1620: - x1620 - x1621 - x1622 >= -2
 c3242_window1621: x1621 + x1622 + x1623 >= 1
 c3243_window1621: - x1621 - x1622 - x1623 >= -2
 c3244_window1622: x1622 + x1623 + x1624 >= 1
 c3245_window1622: - x1622 - x1623 - x1624 >= -2
 c3246_window1623: x1623 + x1624 + x1625 >= 1
 c3247_window1623: - x1623 - x1624 - x1625 >= -2
 c3248_window1624: x1624 + x1625 + x1626 >= 1
 c3249_window1624: - x1624 - x1625 - x1626 >= -2
 c3250_window1625: x1625 + x1626 + x1627 >= 1
 c3251_window1625: - x1625 - x1626 - x1627 >= -2
 c3252_window1626: x1626 + x1627 + x1628 >= 1
 c3253_window1626: - x1626 - x1627 - x1628 >= -2
 c3254_window1627: x1627 + x1628 + x1629 >= 1
 c3255_window1627: - x1627 - x1628 - x1629 >= -2
 c3256_window1628: x1628 + x1629 + x1630 >= 1
 c3257_window1628: - x1628 - x1629 - x1630 >= -2
 c3258_window1629: x1629 + x1630 + x1631 >= 1
 c3259_window1629: - x1629 - x1630 - x1631 >= -2
 c3260_window1630: x1630 + x1631 + x1632 >= 1
 c3261_window1630: - x1630 - x1631 - x1632 >= -2
 c3262_window1631: x1631 + x1632 + x1633 >= 1
 c3263_window1631: - x1631 - x1632 - x1633 >= -2
 c3264_window1632: x1632 + x1633 + x1634 >= 1
 c3265_window1632: - x1632 - x1633 - x1634 >= -2
 c3266_window1633: x1633 + x1634 + x1635 >= 1
 c3267_window1633: - x1633 - x1634 - x1635 >= -2
 c3268_window1634: x1634 + x1635 + x1636 >= 1
 c3269_window1634: - x1634 - x1635 - x1636 >= -2
 c3270_window1635: x1635 + x1636 + x1637 >= 1
 c3271_window1635: - x1635 - x1636 - x1637 >= -2
 c3272_window1636: x1636 + x1637 + x1638 >= 1
 c3273_window1636: - x1636 - x1637 - x1638 >= -2
 c3274_window1637: x1637 + x1638 + x1639 >= 1
 c3275_window1637: - x1637 - x1638 - x1639 >= -2
 c3276_window1638: x1638 + x1639 + x1640 >= 1
 c3277_window1638: - x1638 - x1639 - x1640 >= -2
 c3278_window1639: x1639 + x1640 + x1641 >= 1
 c3279_window1639: - x1639 - x1640 - x1641 >= -2
 c3280_window1640: x1640 + x1641 + x1642 >= 1
 c3281_window1640: - x1640 - x1641 - x1642 >= -2
 c3282_window1641: x1641 + x1642 + x1643 >= 1
 c3283_window1641: - x1641 - x1642 - x1643 >= -2
 c3284_window1642: x1642 + x1643 + x1644 >= 1
 c3285_window1642: - x1642 - x1643 - x1644 >= -2
 c3286_window1643: x1643 + x1644 + x1645 >= 1
 c3287_window1643: - x1643 - x1644 - x1645 >= -2
 c3288_window1644: x1644 + x1645 + x1646 >= 1
 c3289_window1644: - x1644 - x1645 - x1646 >= -2
 c3290_window1645: x1645 + x1646 + x1647 >= 1
 c3291_window1645: - x1645 - x1646 - x1647 >= -2
 c3292_window1646: x1646 + x1647 + x1648 >= 1
 c3293_window1646: - x1646 - x1647 - x1648 >= -2
 c3294_window1647: x1647 + x1648 + x1649 >= 1
 c3295_window1647: - x1647 - x1648 - x1649 >= -2
 c3296_window1648: x1648 + x1649 + x1650 >= 1
 c3297_window1648: - x1648 - x1649 - x1650 >= -2
 c3298_window1649: x1649 + x1650 + x1651 >= 1
 c3299_window1649: - x1649 - x1650 - x1651 >= -2
 c3300_window1650: x1650 + x1651 + x1652 >= 1
 c3301_window1650: - x1650 - x1651 - x1652 >= -2
 c3302_window1651: x1651 + x1652 + x1653 >= 1
 c3303_window1651: - x1651 - x1652 - x1653 >= -2
 c3304_window1652: x1652 + x1653 + x1654 >= 1
 c3305_window1652: - x1652 - x1653 - x1654 >= -2
 c3306_window1653: x1653 + x1654 + x1655 >= 1
 c3307_window1653: - x1653 - x1654 - x1655 >= -2
 c3308_window1654: x1654 + x1655 + x1656 >= 1
 c3309_window1654: - x1654 - x1655 - x1656 >= -2
 c3310_window1655: x1655 + x1656 + x1657 >= 1
 c3311_window1655: - x1655 - x1656 - x1657 >= -2
 c3312_window1656: x1656 + x1657 + x1658 >= 1
 c3313_window1656: - x1656 - x1657 - x1658 >= -2
 c3314_window1657: x1657 + x1658 + x1659 >= 1
 c3315_window1657: - x1657 - x1658 - x1659 >= -2
 c3316_window1658: x1658 + x1659 + x1660 >= 1
 c3317_window1658: - x1658 - x1659 - x1660 >= -2
 c3318_window1659: x1659 + x1660 + x1661 >= 1
 c3319_window1659: - x1659 - x1660 - x1661 >= -2
 c3320_window1660: x1660 + x1661 + x1662 >= 1
 c3321_window1660: - x1660 - x1661 - x1662 >= -2
 c3322_window1661: x1661 + x1662 + x1663 >= 1
 c3323_window1661: - x1661 - x1662 - x1663 >= -2
 c3324_window1662: x1662 + x1663 + x1664 >= 1
 c3325_window1662: - x1662 - x1663 - x1664 >= -2
 c3326_window1663: x1663 + x1664 + x1665 >= 1
 c3327_window1663: - x1663 - x1664 - x1665 >= -2
 c3328_window1664: x1664 + x1665 + x1666 >= 1
 c3329_window1664: - x1664 - x1665 - x1666 >= -2
 c3330_window1665: x1665 + x1666 + x1667 >= 1
 c3331_window1665: - x1665 - x1666 - x1667 >= -2
 c3332_window1666: x1666 + x1667 + x1668 >= 1
 c3333_window1666: - x1666 - x1667 - x1668 >= -2
 c3334_window1667: x1667 + x1668 + x1669 >= 1
 c3335_window1667: - x1667 - x1668 - x1669 >= -2
 c3336_window1668: x1668 + x1669 + x1670 >= 1
 c3337_window1668: - x1668 - x1669 - x1670 >= -2
 c3338_window1669: x1669 + x1670 + x1671 >= 1
 c3339_window1669: - x1669 - x1670 - x1671 >= -2
 c3340_window1670: x1670 + x1671 + x1672 >= 1
 c3341_window1670: - x1670 - x1671 - x1672 >= -2
 c3342_window1671: x1671 + x1672 + x1673 >= 1
 c3343_window1671: - x1671 - x1672 - x1673 >= -2
 c3344_window1672: x1672 + x1673 + x1674 >= 1
 c3345_window1672: - x1672 - x1673 - x1674 >= -2
 c3346_window1673: x1673 + x1674 + x1675 >= 1
 c3347_window1673: - x1673 - x1674 - x1675 >= -2
 c3348_window1674: x1674 + x1675 + x1676 >= 1
 c3349_window1674: - x1674 - x1675 - x1676 >= -2
 c3350_window1675: x1675 + x1676 + x1677 >= 1
 c3351_window1675: - x1675 - x1676 - x1677 >= -2
 c3352_window1676: x1676 + x1677 + x1678 >= 1
 c3353_window1676: - x1676 - x1677 - x1678 >= -2
 c3354_window1677: x1677 + x1678 + x1679 >= 1
 c3355_window1677: - x1677 - x1678 - x1679 >= -2
 c3356_window1678: x1678 + x1679 + x1680 >= 1
 c3357_window1678: - x1678 - x1679 - x1680 >= -2
 c3358_window1679: x1679 + x1680 + x1681 >= 1
 c3359_window1679: - x1679 - x1680 - x1681 >= -2
 c3360_window1680: x1680 + x1681 + x1682 >= 1
 c3361_window1680: - x1680 - x1681 - x1682 >= -2
 c3362_window1681: x1681 + x1682 + x1683 >= 1
 c3363_window1681: - x1681 - x1682 - x1683 >= -2
 c3364_window1682: x1682 + x1683 + x1684 >= 1
 c3365_window1682: - x1682 - x1683 - x1684 >= -2
 c3366_window1683: x1683 + x1684 + x1685 >= 1
 c3367_window1683: - x1683 - x1684 - x1685 >= -2
 c3368_window1684: x1684 + x1685 + x1686 >= 1
 c3369_window1684: - x1684 - x1685 - x1686 >= -2
 c3370_window1685: x1685 + x1686 + x1687 >= 1
 c3371_window1685: - x1685 - x1686 - x1687 >= -2
 c3372_window1686: x1686 + x1687 + x1688 >= 1
 c3373_window1686: - x1686 - x1687 - x1688 >= -2
 c3374_window1687: x1687 + x1688 + x1689 >= 1
 c3375_window1687: - x1687 - x1688 - x1689 >= -2
 c3376_window1688: x1688 + x1689 + x1690 >= 1
 c3377_window1688: - x1688 - x1689 - x1690 >= -2
 c3378_window1689: x1689 + x1690 + x1691 >= 1
 c3379_window1689: - x1689 - x1690 - x1691 >= -2
 c3380_window1690: x1690 + x1691 + x1692 >= 1
 c3381_window1690: - x1690 - x1691 - x1692 >= -2
 c3382_window1691: x1691 + x1692 + x1693 >= 1
 c3383_window1691: - x1691 - x1692 - x1693 >= -2
 c3384_window1692: x1692 + x1693 + x1694 >= 1
 c3385_window1692: - x1692 - x1693 - x1694 >= -2
 c3386_window1693: x1693 + x1694 + x1695 >= 1
 c3387_window1693: - x1693 - x1694 - x1695 >= -2
 c3388_window1694: x1694 + x1695 + x1696 >= 1
 c3389_window1694: - x1694 - x1695 - x1696 >= -2
 c3390_window1695: x1695 + x1696 + x1697 >= 1
 c3391_window1695: - x1695 - x1696 - x1697 >= -2
 c3392_window1696: x1696 + x1697 + x1698 >= 1
 c3393_window1696: - x1696 - x1697 - x1698 >= -2
 c3394_window1697: x1697 + x1698 + x1699 >= 1
 c3395_window1697: - x1697 - x1698 - x1699 >= -2
 c3396_window1698: x1698 + x1699 + x1700 >= 1
 c3397_window1698: - x1698 - x1699 - x1700 >= -2
 c3398_window1699: x1699 + x1700 + x1701 >= 1
 c3399_window1699: - x1699 - x1700 - x1701 >= -2
 c3400_window1700: x1700 + x1701 + x1702 >= 1
 c3401_window1700: - x1700 - x1701 - x1702 >= -2
 c3402_window1701: x1701 + x1702 + x1703 >= 1
 c3403_window1701: - x1701 - x1702 - x1703 >= -2
 c3404_window1702: x1702 + x1703 + x1704 >= 1
 c3405_window1702: - x1702 - x1703 - x1704 >= -2
 c3406_window1703: x1703 + x1704 + x1705 >= 1
 c3407_window1703: - x1703 - x1704 - x1705 >= -2
 c3408_window1704: x1704 + x1705 + x1706 >= 1
 c3409_window1704: - x1704 - x1705 - x1706 >= -2
 c3410_window1705: x1705 + x1706 + x1707 >= 1
 c3411_window1705: - x1705 - x1706 - x1707 >= -2
 c3412_window1706: x1706 + x1707 + x1708 >= 1
 c3413_window1706: - x1706 - x1707 - x1708 >= -2
 c3414_window1707: x1707 + x1708 + x1709 >= 1
 c3415_window1707: - x1707 - x1708 - x1709 >= -2
 c3416_window1708: x1708 + x1709 + x1710 >= 1
 c3417_window1708: - x1708 - x1709 - x1710 >= -2
 c3418_window1709: x1709 + x1710 + x1711 >= 1
 c3419_window1709: - x1709 - x1710 - x1711 >= -2
 c3420_window1710: x1710 + x1711 + x1712 >= 1
 c3421_window1710: - x1710 - x1711 - x1712 >= -2
 c3422_window1711: x1711 + x1712 + x1713 >= 1
 c3423_window1711: - x1711 - x1712 - x1713 >= -2
 c3424_window1712: x1712 + x1713 + x1714 >= 1
 c3425_window1712: - x1712 - x1713 - x1714 >= -2
 c3426_window1713: x1713 + x1714 + x1715 >= 1
 c3427_window1713: - x1713 - x1714 - x1715 >= -2
 c3428_window1714: x1714 + x1715 + x1716 >= 1
 c3429_window1714: - x1714 - x1715 - x1716 >= -2
 c3430_window1715: x1715 + x1716 + x1717 >= 1
 c3431_window1715: - x1715 - x1716 - x1717 >= -2
 c3432_window1716: x1716 + x1717 + x1718 >= 1
 c3433_window1716: - x1716 - x1717 - x1718 >= -2
 c3434_window1717: x1717 + x1718 + x1719 >= 1
 c3435_window1717: - x1717 - x1718 - x1719 >= -2
 c3436_window1718: x1718 + x1719 + x1720 >= 1
 c3437_window1718: - x1718 - x1719 - x1720 >= -2
 c3438_window1719: x1719 + x1720 + x1721 >= 1
 c3439_window1719: - x1719 - x1720 - x1721 >= -2
 c3440_window1720: x1720 + x1721 + x1722 >= 1
 c3441_window1720: - x1720 - x1721 - x1722 >= -2
 c3442_window1721: x1721 + x1722 + x1723 >= 1
 c3443_window1721: - x1721 - x1722 - x1723 >= -2
 c3444_window1722: x1722 + x1723 + x1724 >= 1
 c3445_window1722: - x1722 - x1723 - x1724 >= -2
 c3446_window1723: x1723 + x1724 + x1725 >= 1
 c3447_window1723: - x1723 - x1724 - x1725 >= -2
 c3448_window1724: x1724 + x1725 + x1726 >= 1
 c3449_window1724: - x1724 - x1725 - x1726 >= -2
 c3450_window1725: x1725 + x1726 + x1727 >= 1
 c3451_window1725: - x1725 - x1726 - x1727 >= -2
 c3452_window1726: x1726 + x1727 + x1728 >= 1
 c3453_window1726: - x1726 - x1727 - x1728 >= -2
 c3454_window1727: x1727 + x1728 + x1729 >= 1
 c3455_window1727: - x1727 - x1728 - x1729 >= -2
 c3456_window1728: x1728 + x1729 + x1730 >= 1
 c3457_window1728: - x1728 - x1729 - x1730 >= -2
 c3458_window1729: x1729 + x1730 + x1731 >= 1
 c3459_window1729: - x1729 - x1730 - x1731 >= -2
 c3460_window1730: x1730 + x1731 + x1732 >= 1
 c3461_window1730: - x1730 - x1731 - x1732 >= -2
 c3462_window1731: x1731 + x1732 + x1733 >= 1
 c3463_window1731: - x1731 - x1732 - x1733 >= -2
 c3464_window1732: x1732 + x1733 + x1734 >= 1
 c3465_window1732: - x1732 - x1733 - x1734 >= -2
 c3466_window1733: x1733 + x1734 + x1735 >= 1
 c3467_window1733: - x1733 - x1734 - x1735 >= -2
 c3468_window1734: x1734 + x1735 + x1736 >= 1
 c3469_window1734: - x1734 - x1735 - x1736 >= -2
 c3470_window1735: x1735 + x1736 + x1737 >= 1
 c3471_window1735: - x1735 - x1736 - x1737 >= -2
 c3472_window1736: x1736 + x1737 + x1738 >= 1
 c3473_window1736: - x1736 - x1737 - x1738 >= -2
 c3474_window1737: x1737 + x1738 + x1739 >= 1
 c3475_window1737: - x1737 - x1738 - x1739 >= -2
 c3476_window1738: x1738 + x1739 + x1740 >= 1
 c3477_window1738: - x1738 - x1739 - x1740 >= -2
 c3478_window1739: x1739 + x1740 + x1741 >= 1
 c3479_window1739: - x1739 - x1740 - x1741 >= -2
 c3480_window1740: x1740 + x1741 + x1742 >= 1
 c3481_window1740: - x1740 - x1741 - x1742 >= -2
 c3482_window1741: x1741 + x1742 + x1743 >= 1
 c3483_window1741: - x1741 - x1742 - x1743 >= -2
 c3484_window1742: x1742 + x1743 + x1744 >= 1
 c3485_window1742: - x1742 - x1743 - x1744 >= -2
 c3486_window1743: x1743 + x1744 + x1745 >= 1
 c3487_window1743: - x1743 - x1744 - x1745 >= -2
 c3488_window1744: x1744 + x1745 + x1746 >= 1
 c3489_window1744: - x1744 - x1745 - x1746 >= -2
 c3490_window1745: x1745 + x1746 + x1747 >= 1
 c3491_window1745: - x1745 - x1746 - x1747 >= -2
 c3492_window1746: x1746 + x1747 + x1748 >= 1
 c3493_window1746: - x1746 - x1747 - x1748 >= -2
 c3494_window1747: x1747 + x1748 + x1749 >= 1
 c3495_window1747: - x1747 - x1748 - x1749 >= -2
 c3496_window1748: x1748 + x1749 + x1750 >= 1
 c3497_window1748: - x1748 - x1749 - x1750 >= -2
 c3498_window1749: x1749 + x1750 + x1751 >= 1
 c3499_window1749: - x1749 - x1750 - x1751 >= -2
 c3500_window1750: x1750 + x1751 + x1752 >= 1
 c3501_window1750: - x1750 - x1751 - x1752 >= -2
 c3502_window1751: x1751 + x1752 + x1753 >= 1
 c3503_window1751: - x1751 - x1752 - x1753 >= -2
 c3504_window1752: x1752 + x1753 + x1754 >= 1
 c3505_window1752: - x1752 - x1753 - x1754 >= -2
 c3506_window1753: x1753 + x1754 + x1755 >= 1
 c3507_window1753: - x1753 - x1754 - x1755 >= -2
 c3508_window1754: x1754 + x1755 + x1756 >= 1
 c3509_window1754: - x1754 - x1755 - x1756 >= -2
 c3510_window1755: x1755 + x1756 + x1757 >= 1
 c3511_window1755: - x1755 - x1756 - x1757 >= -2
 c3512_window1756: x1756 + x1757 + x1758 >= 1
 c3513_window1756: - x1756 - x1757 - x1758 >= -2
 c3514_window1757: x1757 + x1758 + x1759 >= 1
 c3515_window1757: - x1757 - x1758 - x1759 >= -2
 c3516_window1758: x1758 + x1759 + x1760 >= 1
 c3517_window1758: - x1758 - x1759 - x1760 >= -2
 c3518_window1759: x1759 + x1760 + x1761 >= 1
 c3519_window1759: - x1759 - x1760 - x1761 >= -2
 c3520_window1760: x1760 + x1761 + x1762 >= 1
 c3521_window1760: - x1760 - x1761 - x1762 >= -2
 c3522_window1761: x1761 + x1762 + x1763 >= 1
 c3523_window1761: - x1761 - x1762 - x1763 >= -2
 c3524_window1762: x1762 + x1763 + x1764 >= 1
 c3525_window1762: - x1762 - x1763 - x1764 >= -2
 c3526_window1763: x1763 + x1764 + x1765 >= 1
 c3527_window1763: - x1763 - x1764 - x1765 >= -2
 c3528_window1764: x1764 + x1765 + x1766 >= 1
 c3529_window1764: - x1764 - x1765 - x1766 >= -2
 c3530_window1765: x1765 + x1766 + x1767 >= 1
 c3531_window1765: - x1765 - x1766 - x1767 >= -2
 c3532_window1766: x1766 + x1767 + x1768 >= 1
 c3533_window1766: - x1766 - x1767 - x1768 >= -2
 c3534_window1767: x1767 + x1768 + x1769 >= 1
 c3535_window1767: - x1767 - x1768 - x1769 >= -2
 c3536_window1768: x1768 + x1769 + x1770 >= 1
 c3537_window1768: - x1768 - x1769 - x1770 >= -2
 c3538_window1769: x1769 + x1770 + x1771 >= 1
 c3539_window1769: - x1769 - x1770 - x1771 >= -2
 c3540_window1770: x1770 + x1771 + x1772 >= 1
 c3541_window1770: - x1770 - x1771 - x1772 >= -2
 c3542_window1771: x1771 + x1772 + x1773 >= 1
 c3543_window1771: - x1771 - x1772 - x1773 >= -2
 c3544_window1772: x1772 + x1773 + x1774 >= 1
 c3545_window1772: - x1772 - x1773 - x1774 >= -2
 c3546_window1773: x1773 + x1774 + x1775 >= 1
 c3547_window1773: - x1773 - x1774 - x1775 >= -2
 c3548_window1774: x1774 + x1775 + x1776 >= 1
 c3549_window1774: - x1774 - x1775 - x1776 >= -2
 c3550_window1775: x1775 + x1776 + x1777 >= 1
 c3551_window1775: - x1775 - x1776 - x1777 >= -2
 c3552_window1776: x1776 + x1777 + x1778 >= 1
 c3553_window1776: - x1776 - x1777 - x1778 >= -2
 c3554_window1777: x1777 + x1778 + x1779 >= 1
 c3555_window1777: - x1777 - x1778 - x1779 >= -2
 c3556_window1778: x1778 + x1779 + x1780 >= 1
 c3557_window1778: - x1778 - x1779 - x1780 >= -2
 c3558_window1779: x1779 + x1780 + x1781 >= 1
 c3559_window1779: - x1779 - x1780 - x1781 >= -2
 c3560_window1780: x1780 + x1781 + x1782 >= 1
 c3561_window1780: - x1780 - x1781 - x1782 >= -2
 c3562_window1781: x1781 + x1782 + x1783 >= 1
 c3563_window1781: - x1781 - x1782 - x1783 >= -2
 c3564_window1782: x1782 + x1783 + x1784 >= 1
 c3565_window1782: - x1782 - x1783 - x1784 >= -2
 c3566_window1783: x1783 + x1784 + x1785 >= 1
 c3567_window1783: - x1783 - x1784 - x1785 >= -2
 c3568_window1784: x1784 + x1785 + x1786 >= 1
 c3569_window1784: - x1784 - x1785 - x1786 >= -2
 c3570_window1785: x1785 + x1786 + x1787 >= 1
 c3571_window1785: - x1785 - x1786 - x1787 >= -2
 c3572_window1786: x1786 + x1787 + x1788 >= 1
 c3573_window1786: - x1786 - x1787 - x1788 >= -2
 c3574_window1787: x1787 + x1788 + x1789 >= 1
 c3575_window1787: - x1787 - x1788 - x1789 >= -2
 c3576_window1788: x1788 + x1789 + x1790 >= 1
 c3577_window1788: - x1788 - x1789 - x1790 >= -2
 c3578_window1789: x1789 + x1790 + x1791 >= 1
 c3579_window1789: - x1789 - x1790 - x1791 >= -2
 c3580_window1790: x1790 + x1791 + x1792 >= 1
 c3581_window1790: - x1790 - x1791 - x1792 >= -2
 c3582_window1791: x1791 + x1792 + x1793 >= 1
 c3583_window1791: - x1791 - x1792 - x1793 >= -2
 c3584_window1792: x1792 + x1793 + x1794 >= 1
 c3585_window1792: - x1792 - x1793 - x1794 >= -2
 c3586_window1793: x1793 + x1794 + x1795 >= 1
 c3587_window1793: - x1793 - x1794 - x1795 >= -2
 c3588_window1794: x1794 + x1795 + x1796 >= 1
 c3589_window1794: - x1794 - x1795 - x1796 >= -2
 c3590_window1795: x1795 + x1796 + x1797 >= 1
 c3591_window1795: - x1795 - x1796 - x1797 >= -2
 c3592_window1796: x1796 + x1797 + x1798 >= 1
 c3593_window1796: - x1796 - x1797 - x1798 >= -2
 c3594_window1797: x1797 + x1798 + x1799 >= 1
 c3595_window1797: - x1797 - x1798 - x1799 >= -2
 c3596_window1798: x1798 + x1799 + x1800 >= 1
 c3597_window1798: - x1798 - x1799 - x1800 >= -2
 c3598_window1799: x1799 + x1800 + x1801 >= 1
 c3599_window1799: - x1799 - x1800 - x1801 >= -2
 c3600_window1800: x1800 + x1801 + x1802 >= 1
 c3601_window1800: - x1800 - x1801 - x1802 >= -2
 c3602_window1801: x1801 + x1802 + x1803 >= 1
 c3603_window1801: - x1801 - x1802 - x1803 >= -2
 c3604_window1802: x1802 + x1803 + x1804 >= 1
 c3605_window1802: - x1802 - x1803 - x1804 >= -2
 c3606_window1803: x1803 + x1804 + x1805 >= 1
 c3607_window1803: - x1803 - x1804 - x1805 >= -2
 c3608_window1804: x1804 + x1805 + x1806 >= 1
 c3609_window1804: - x1804 - x1805 - x1806 >= -2
 c3610_window1805: x1805 + x1806 + x1807 >= 1
 c3611_window1805: - x1805 - x1806 - x1807 >= -2
 c3612_window1806: x1806 + x1807 + x1808 >= 1
 c3613_window1806: - x1806 - x1807 - x1808 >= -2
 c3614_window1807: x1807 + x1808 + x1809 >= 1
 c3615_window1807: - x1807 - x1808 - x1809 >= -2
 c3616_window1808: x1808 + x1809 + x1810 >= 1
 c3617_window1808: - x1808 - x1809 - x1810 >= -2
 c3618_window1809: x1809 + x1810 + x1811 >= 1
 c3619_window1809: - x1809 - x1810 - x1811 >= -2
 c3620_window1810: x1810 + x1811 + x1812 >= 1
 c3621_window1810: - x1810 - x1811 - x1812 >= -2
 c3622_window1811: x1811 + x1812 + x1813 >= 1
 c3623_window1811: - x1811 - x1812 - x1813 >= -2
 c3624_window1812: x1812 + x1813 + x1814 >= 1
 c3625_window1812: - x1812 - x1813 - x1814 >= -2
 c3626_window1813: x1813 + x1814 + x1815 >= 1
 c3627_window1813: - x1813 - x1814 - x1815 >= -2
 c3628_window1814: x1814 + x1815 + x1816 >= 1
 c3629_window1814: - x1814 - x1815 - x1816 >= -2
 c3630_window1815: x1815 + x1816 + x1817 >= 1
 c3631_window1815: - x1815 - x1816 - x1817 >= -2
 c3632_window1816: x1816 + x1817 + x1818 >= 1
 c3633_window1816: - x1816 - x1817 - x1818 >= -2
 c3634_window1817: x1817 + x1818 + x1819 >= 1
 c3635_window1817: - x1817 - x1818 - x1819 >= -2
 c3636_window1818: x1818 + x1819 + x1820 >= 1
 c3637_window1818: - x1818 - x1819 - x1820 >= -2
 c3638_window1819: x1819 + x1820 + x1821 >= 1
 c3639_window1819: - x1819 - x1820 - x1821 >= -2
 c3640_window1820: x1820 + x1821 + x1822 >= 1
 c3641_window1820: - x1820 - x1821 - x1822 >= -2
 c3642_window1821: x1821 + x1822 + x1823 >= 1
 c3643_window1821: - x1821 - x1822 - x1823 >= -2
 c3644_window1822: x1822 + x1823 + x1824 >= 1
 c3645_window1822: - x1822 - x1823 - x1824 >= -2
 c3646_window1823: x1823 + x1824 + x1825 >= 1
 c3647_window1823: - x1823 - x1824 - x1825 >= -2
 c3648_window1824: x1824 + x1825 + x1826 >= 1
 c3649_window1824: - x1824 - x1825 - x1826 >= -2
 c3650_window1825: x1825 + x1826 + x1827 >= 1
 c3651_window1825: - x1825 - x1826 - x1827 >= -2
 c3652_window1826: x1826 + x1827 + x1828 >= 1
 c3653_window1826: - x1826 - x1827 - x1828 >= -2
 c3654_window1827: x1827 + x1828 + x1829 >= 1
 c3655_window1827: - x1827 - x1828 - x1829 >= -2
 c3656_window1828: x1828 + x1829 + x1830 >= 1
 c3657_window1828: - x1828 - x1829 - x1830 >= -2
 c3658_window1829: x1829 + x1830 + x1831 >= 1
 c3659_window1829: - x1829 - x1830 - x1831 >= -2
 c3660_window1830: x1830 + x1831 + x1832 >= 1
 c3661_window1830: - x1830 - x1831 - x1832 >= -2
 c3662_window1831: x1831 + x1832 + x1833 >= 1
 c3663_window1831: - x1831 - x1832 - x1833 >= -2
 c3664_window1832: x1832 + x1833 + x1834 >= 1
 c3665_window1832: - x1832 - x1833 - x1834 >= -2
 c3666_window1833: x1833 + x1834 + x1835 >= 1
 c3667_window1833: - x1833 - x1834 - x1835 >= -2
 c3668_window1834: x1834 + x1835 + x1836 >= 1
 c3669_window1834: - x1834 - x1835 - x1836 >= -2
 c3670_window1835: x1835 + x1836 + x1837 >= 1
 c3671_window1835: - x1835 - x1836 - x1837 >= -2
 c3672_window1836: x1836 + x1837 + x1838 >= 1
 c3673_window1836: - x1836 - x1837 - x1838 >= -2
 c3674_window1837: x1837 + x1838 + x1839 >= 1
 c3675_window1837: - x1837 - x1838 - x1839 >= -2
 c3676_window1838: x1838 + x1839 + x1840 >= 1
 c3677_window1838: - x1838 - x1839 - x1840 >= -2
 c3678_window1839: x1839 + x1840 + x1841 >= 1
 c3679_window1839: - x1839 - x1840 - x1841 >= -2
 c3680_window1840: x1840 + x1841 + x1842 >= 1
 c3681_window1840: - x1840 - x1841 - x1842 >= -2
 c3682_window1841: x1841 + x1842 + x1843 >= 1
 c3683_window1841: - x1841 - x1842 - x1843 >= -2
 c3684_window1842: x1842 + x1843 + x1844 >= 1
 c3685_window1842: - x1842 - x1843 - x1844 >= -2
 c3686_window1843: x1843 + x1844 + x1845 >= 1
 c3687_window1843: - x1843 - x1844 - x1845 >= -2
 c3688_window1844: x1844 + x1845 + x1846 >= 1
 c3689_window1844: - x1844 - x1845 - x1846 >= -2
 c3690_window1845: x1845 + x1846 + x1847 >= 1
 c3691_window1845: - x1845 - x1846 - x1847 >= -2
 c3692_window1846: x1846 + x1847 + x1848 >= 1
 c3693_window1846: - x1846 - x1847 - x1848 >= -2
 c3694_window1847: x1847 + x1848 + x1849 >= 1
 c3695_window1847: - x1847 - x1848 - x1849 >= -2
 c3696_window1848: x1848 + x1849 + x1850 >= 1
 c3697_window1848: - x1848 - x1849 - x1850 >= -2
 c3698_window1849: x1849 + x1850 + x1851 >= 1
 c3699_window1849: - x1849 - x1850 - x1851 >= -2
 c3700_window1850: x1850 + x1851 + x1852 >= 1
 c3701_window1850: - x1850 - x1851 - x1852 >= -2
 c3702_window1851: x1851 + x1852 + x1853 >= 1
 c3703_window1851: - x1851 - x1852 - x1853 >= -2
 c3704_window1852: x1852 + x1853 + x1854 >= 1
 c3705_window1852: - x1852 - x1853 - x1854 >= -2
 c3706_window1853: x1853 + x1854 + x1855 >= 1
 c3707_window1853: - x1853 - x1854 - x1855 >= -2
 c3708_window1854: x1854 + x1855 + x1856 >= 1
 c3709_window1854: - x1854 - x1855 - x1856 >= -2
 c3710_window1855: x1855 + x1856 + x1857 >= 1
 c3711_window1855: - x1855 - x1856 - x1857 >= -2
 c3712_window1856: x1856 + x1857 + x1858 >= 1
 c3713_window1856: - x1856 - x1857 - x1858 >= -2
 c3714_window1857: x1857 + x1858 + x1859 >= 1
 c3715_window1857: - x1857 - x1858 - x1859 >= -2
 c3716_window1858: x1858 + x1859 + x1860 >= 1
 c3717_window1858: - x1858 - x1859 - x1860 >= -2
 c3718_window1859: x1859 + x1860 + x1861 >= 1
 c3719_window1859: - x1859 - x1860 - x1861 >= -2
 c3720_window1860: x1860 + x1861 + x1862 >= 1
 c3721_window1860: - x1860 - x1861 - x1862 >= -2
 c3722_window1861: x1861 + x1862 + x1863 >= 1
 c3723_window1861: - x1861 - x1862 - x1863 >= -2
 c3724_window1862: x1862 + x1863 + x1864 >= 1
 c3725_window1862: - x1862 - x1863 - x1864 >= -2
 c3726_window1863: x1863 + x1864 + x1865 >= 1
 c3727_window1863: - x1863 - x1864 - x1865 >= -2
 c3728_window1864: x1864 + x1865 + x1866 >= 1
 c3729_window1864: - x1864 - x1865 - x1866 >= -2
 c3730_window1865: x1865 + x1866 + x1867 >= 1
 c3731_window1865: - x1865 - x1866 - x1867 >= -2
 c3732_window1866: x1866 + x1867 + x1868 >= 1
 c3733_window1866: - x1866 - x1867 - x1868 >= -2
 c3734_window1867: x1867 + x1868 + x1869 >= 1
 c3735_window1867: - x1867 - x1868 - x1869 >= -2
 c3736_window1868: x1868 + x1869 + x1870 >= 1
 c3737_window1868: - x1868 - x1869 - x1870 >= -2
 c3738_window1869: x1869 + x1870 + x1871 >= 1
 c3739_window1869: - x1869 - x1870 - x1871 >= -2
 c3740_window1870: x1870 + x1871 + x1872 >= 1
 c3741_window1870: - x1870 - x1871 - x1872 >= -2
 c3742_window1871: x1871 + x1872 + x1873 >= 1
 c3743_window1871: - x1871 - x1872 - x1873 >= -2
 c3744_window1872: x1872 + x1873 + x1874 >= 1
 c3745_window1872: - x1872 - x1873 - x1874 >= -2
 c3746_window1873: x1873 + x1874 + x1875 >= 1
 c3747_window1873: - x1873 - x1874 - x1875 >= -2
 c3748_window1874: x1874 + x1875 + x1876 >= 1
 c3749_window1874: - x1874 - x1875 - x1876 >= -2
 c3750_window1875: x1875 + x1876 + x1877 >= 1
 c3751_window1875: - x1875 - x1876 - x1877 >= -2
 c3752_window1876: x1876 + x1877 + x1878 >= 1
 c3753_window1876: - x1876 - x1877 - x1878 >= -2
 c3754_window1877: x1877 + x1878 + x1879 >= 1
 c3755_window1877: - x1877 - x1878 - x1879 >= -2
 c3756_window1878: x1878 + x1879 + x1880 >= 1
 c3757_window1878: - x1878 - x1879 - x1880 >= -2
 c3758_window1879: x1879 + x1880 + x1881 >= 1
 c3759_window1879: - x1879 - x1880 - x1881 >= -2
 c3760_window1880: x1880 + x1881 + x1882 >= 1
 c3761_window1880: - x1880 - x1881 - x1882 >= -2
 c3762_window1881: x1881 + x1882 + x1883 >= 1
 c3763_window1881: - x1881 - x1882 - x1883 >= -2
 c3764_window1882: x1882 + x1883 + x1884 >= 1
 c3765_window1882: - x1882 - x1883 - x1884 >= -2
 c3766_window1883: x1883 + x1884 + x1885 >= 1
 c3767_window1883: - x1883 - x1884 - x1885 >= -2
 c3768_window1884: x1884 + x1885 + x1886 >= 1
 c3769_window1884: - x1884 - x1885 - x1886 >= -2
 c3770_window1885: x1885 + x1886 + x1887 >= 1
 c3771_window1885: - x1885 - x1886 - x1887 >= -2
 c3772_window1886: x1886 + x1887 + x1888 >= 1
 c3773_window1886: - x1886 - x1887 - x1888 >= -2
 c3774_window1887: x1887 + x1888 + x1889 >= 1
 c3775_window1887: - x1887 - x1888 - x1889 >= -2
 c3776_window1888: x1888 + x1889 + x1890 >= 1
 c3777_window1888: - x1888 - x1889 - x1890 >= -2
 c3778_window1889: x1889 + x1890 + x1891 >= 1
 c3779_window1889: - x1889 - x1890 - x1891 >= -2
 c3780_window1890: x1890 + x1891 + x1892 >= 1
 c3781_window1890: - x1890 - x1891 - x1892 >= -2
 c3782_window1891: x1891 + x1892 + x1893 >= 1
 c3783_window1891: - x1891 - x1892 - x1893 >= -2
 c3784_window1892: x1892 + x1893 + x1894 >= 1
 c3785_window1892: - x1892 - x1893 - x1894 >= -2
 c3786_window1893: x1893 + x1894 + x1895 >= 1
 c3787_window1893: - x1893 - x1894 - x1895 >= -2
 c3788_window1894: x1894 + x1895 + x1896 >= 1
 c3789_window1894: - x1894 - x1895 - x1896 >= -2
 c3790_window1895: x1895 + x1896 + x1897 >= 1
 c3791_window1895: - x1895 - x1896 - x1897 >= -2
 c3792_window1896: x1896 + x1897 + x1898 >= 1
 c3793_window1896: - x1896 - x1897 - x1898 >= -2
 c3794_window1897: x1897 + x1898 + x1899 >= 1
 c3795_window1897: - x1897 - x1898 - x1899 >= -2
 c3796_window1898: x1898 + x1899 + x1900 >= 1
 c3797_window1898: - x1898 - x1899 - x1900 >= -2
 c3798_window1899: x1899 + x1900 + x1901 >= 1
 c3799_window1899: - x1899 - x1900 - x1901 >= -2
 c3800_window1900: x1900 + x1901 + x1902 >= 1
 c3801_window1900: - x1900 - x1901 - x1902 >= -2
 c3802_window1901: x1901 + x1902 + x1903 >= 1
 c3803_window1901: - x1901 - x1902 - x1903 >= -2
 c3804_window1902: x1902 + x1903 + x1904 >= 1
 c3805_window1902: - x1902 - x1903 - x1904 >= -2
 c3806_window1903: x1903 + x1904 + x1905 >= 1
 c3807_window1903: - x1903 - x1904 - x1905 >= -2
 c3808_window1904: x1904 + x1905 + x1906 >= 1
 c3809_window1904: - x1904 - x1905 - x1906 >= -2
 c3810_window1905: x1905 + x1906 + x1907 >= 1
 c3811_window1905: - x1905 - x1906 - x1907 >= -2
 c3812_window1906: x1906 + x1907 + x1908 >= 1
 c3813_window1906: - x1906 - x1907 - x1908 >= -2
 c3814_window1907: x1907 + x1908 + x1909 >= 1
 c3815_window1907: - x1907 - x1908 - x1909 >= -2
 c3816_window1908: x1908 + x1909 + x1910 >= 1
 c3817_window1908: - x1908 - x1909 - x1910 >= -2
 c3818_window1909: x1909 + x1910 + x1911 >= 1
 c3819_window1909: - x1909 - x1910 - x1911 >= -2
 c3820_window1910: x1910 + x1911 + x1912 >= 1
 c3821_window1910: - x1910 - x1911 - x1912 >= -2
 c3822_window1911: x1911 + x1912 + x1913 >= 1
 c3823_window1911: - x1911 - x1912 - x1913 >= -2
 c3824_window1912: x1912 + x1913 + x1914 >= 1
 c3825_window1912: - x1912 - x1913 - x1914 >= -2
 c3826_window1913: x1913 + x1914 + x1915 >= 1
 c3827_window1913: - x1913 - x1914 - x1915 >= -2
 c3828_window1914: x1914 + x1915 + x1916 >= 1
 c3829_window1914: - x1914 - x1915 - x1916 >= -2
 c3830_window1915: x1915 + x1916 + x1917 >= 1
 c3831_window1915: - x1915 - x1916 - x1917 >= -2
 c3832_window1916: x1916 + x1917 + x1918 >= 1
 c3833_window1916: - x1916 - x1917 - x1918 >= -2
 c3834_window1917: x1917 + x1918 + x1919 >= 1
 c3835_window1917: - x1917 - x1918 - x1919 >= -2
 c3836_window1918: x1918 + x1919 + x1920 >= 1
 c3837_window1918: - x1918 - x1919 - x1920 >= -2
 c3838_window1919: x1919 + x1920 + x1921 >= 1
 c3839_window1919: - x1919 - x1920 - x1921 >= -2
 c3840_window1920: x1920 + x1921 + x1922 >= 1
 c3841_window1920: - x1920 - x1921 - x1922 >= -2
 c3842_window1921: x1921 + x1922 + x1923 >= 1
 c3843_window1921: - x1921 - x1922 - x1923 >= -2
 c3844_window1922: x1922 + x1923 + x1924 >= 1
 c3845_window1922: - x1922 - x1923 - x1924 >= -2
 c3846_window1923: x1923 + x1924 + x1925 >= 1
 c3847_window1923: - x1923 - x1924 - x1925 >= -2
 c3848_window1924: x1924 + x1925 + x1926 >= 1
 c3849_window1924: - x1924 - x1925 - x1926 >= -2
 c3850_window1925: x1925 + x1926 + x1927 >= 1
 c3851_window1925: - x1925 - x1926 - x1927 >= -2
 c3852_window1926: x1926 + x1927 + x1928 >= 1
 c3853_window1926: - x1926 - x1927 - x1928 >= -2
 c3854_window1927: x1927 + x1928 + x1929 >= 1
 c3855_window1927: - x1927 - x1928 - x1929 >= -2
 c3856_window1928: x1928 + x1929 + x1930 >= 1
 c3857_window1928: - x1928 - x1929 - x1930 >= -2
 c3858_window1929: x1929 + x1930 + x1931 >= 1
 c3859_window1929: - x1929 - x1930 - x1931 >= -2
 c3860_window1930: x1930 + x1931 + x1932 >= 1
 c3861_window1930: - x1930 - x1931 - x1932 >= -2
 c3862_window1931: x1931 + x1932 + x1933 >= 1
 c3863_window1931: - x1931 - x1932 - x1933 >= -2
 c3864_window1932: x1932 + x1933 + x1934 >= 1
 c3865_window1932: - x1932 - x1933 - x1934 >= -2
 c3866_window1933: x1933 + x1934 + x1935 >= 1
 c3867_window1933: - x1933 - x1934 - x1935 >= -2
 c3868_window1934: x1934 + x1935 + x1936 >= 1
 c3869_window1934: - x1934 - x1935 - x1936 >= -2
 c3870_window1935: x1935 + x1936 + x1937 >= 1
 c3871_window1935: - x1935 - x1936 - x1937 >= -2
 c3872_window1936: x1936 + x1937 + x1938 >= 1
 c3873_window1936: - x1936 - x1937 - x1938 >= -2
 c3874_window1937: x1937 + x1938 + x1939 >= 1
 c3875_window1937: - x1937 - x1938 - x1939 >= -2
 c3876_window1938: x1938 + x1939 + x1940 >= 1
 c3877_window1938: - x1938 - x1939 - x1940 >= -2
 c3878_window1939: x1939 + x1940 + x1941 >= 1
 c3879_window1939: - x1939 - x1940 - x1941 >= -2
 c3880_window1940: x1940 + x1941 + x1942 >= 1
 c3881_window1940: - x1940 - x1941 - x1942 >= -2
 c3882_window1941: x1941 + x1942 + x1943 >= 1
 c3883_window1941: - x1941 - x1942 - x1943 >= -2
 c3884_window1942: x1942 + x1943 + x1944 >= 1
 c3885_window1942: - x1942 - x1943 - x1944 >= -2
 c3886_window1943: x1943 + x1944 + x1945 >= 1
 c3887_window1943: - x1943 - x1944 - x1945 >= -2
 c3888_window1944: x1944 + x1945 + x1946 >= 1
 c3889_window1944: - x1944 - x1945 - x1946 >= -2
 c3890_window1945: x1945 + x1946 + x1947 >= 1
 c3891_window1945: - x1945 - x1946 - x1947 >= -2
 c3892_window1946: x1946 + x1947 + x1948 >= 1
 c3893_window1946: - x1946 - x1947 - x1948 >= -2
 c3894_window1947: x1947 + x1948 + x1949 >= 1
 c3895_window1947: - x1947 - x1948 - x1949 >= -2
 c3896_window1948: x1948 + x1949 + x1950 >= 1
 c3897_window1948: - x1948 - x1949 - x1950 >= -2
 c3898_window1949: x1949 + x1950 + x1951 >= 1
 c3899_window1949: - x1949 - x1950 - x1951 >= -2
 c3900_window1950: x1950 + x1951 + x1952 >= 1
 c3901_window1950: - x1950 - x1951 - x1952 >= -2
 c3902_window1951: x1951 + x1952 + x1953 >= 1
 c3903_window1951: - x1951 - x1952 - x1953 >= -2
 c3904_window1952: x1952 + x1953 + x1954 >= 1
 c3905_window1952: - x1952 - x1953 - x1954 >= -2
 c3906_window1953: x1953 + x1954 + x1955 >= 1
 c3907_window1953: - x1953 - x1954 - x1955 >= -2
 c3908_window1954: x1954 + x1955 + x1956 >= 1
 c3909_window1954: - x1954 - x1955 - x1956 >= -2
 c3910_window1955: x1955 + x1956 + x1957 >= 1
 c3911_window1955: - x1955 - x1956 - x1957 >= -2
 c3912_window1956: x1956 + x1957 + x1958 >= 1
 c3913_window1956: - x1956 - x1957 - x1958 >= -2
 c3914_window1957: x1957 + x1958 + x1959 >= 1
 c3915_window1957: - x1957 - x1958 - x1959 >= -2
 c3916_window1958: x1958 + x1959 + x1960 >= 1
 c3917_window1958: - x1958 - x1959 - x1960 >= -2
 c3918_window1959: x1959 + x1960 + x1961 >= 1
 c3919_window1959: - x1959 - x1960 - x1961 >= -2
 c3920_window1960: x1960 + x1961 + x1962 >= 1
 c3921_window1960: - x1960 - x1961 - x1962 >= -2
 c3922_window1961: x1961 + x1962 + x1963 >= 1
 c3923_window1961: - x1961 - x1962 - x1963 >= -2
 c3924_window1962: x1962 + x1963 + x1964 >= 1
 c3925_window1962: - x1962 - x1963 - x1964 >= -2
 c3926_window1963: x1963 + x1964 + x1965 >= 1
 c3927_window1963: - x1963 - x1964 - x1965 >= -2
 c3928_window1964: x1964 + x1965 + x1966 >= 1
 c3929_window1964: - x1964 - x1965 - x1966 >= -2
 c3930_window1965: x1965 + x1966 + x1967 >= 1
 c3931_window1965: - x1965 - x1966 - x1967 >= -2
 c3932_window1966: x1966 + x1967 + x1968 >= 1
 c3933_window1966: - x1966 - x1967 - x1968 >= -2
 c3934_window1967: x1967 + x1968 + x1969 >= 1
 c3935_window1967: - x1967 - x1968 - x1969 >= -2
 c3936_window1968: x1968 + x1969 + x1970 >= 1
 c3937_window1968: - x1968 - x1969 - x1970 >= -2
 c3938_window1969: x1969 + x1970 + x1971 >= 1
 c3939_window1969: - x1969 - x1970 - x1971 >= -2
 c3940_window1970: x1970 + x1971 + x1972 >= 1
 c3941_window1970: - x1970 - x1971 - x1972 >= -2
 c3942_window1971: x1971 + x1972 + x1973 >= 1
 c3943_window1971: - x1971 - x1972 - x1973 >= -2
 c3944_window1972: x1972 + x1973 + x1974 >= 1
 c3945_window1972: - x1972 - x1973 - x1974 >= -2
 c3946_window1973: x1973 + x1974 + x1975 >= 1
 c3947_window1973: - x1973 - x1974 - x1975 >= -2
 c3948_window1974: x1974 + x1975 + x1976 >= 1
 c3949_window1974: - x1974 - x1975 - x1976 >= -2
 c3950_window1975: x1975 + x1976 + x1977 >= 1
 c3951_window1975: - x1975 - x1976 - x1977 >= -2
 c3952_window1976: x1976 + x1977 + x1978 >= 1
 c3953_window1976: - x1976 - x1977 - x1978 >= -2
 c3954_window1977: x1977 + x1978 + x1979 >= 1
 c3955_window1977: - x1977 - x1978 - x1979 >= -2
 c3956_window1978: x1978 + x1979 + x1980 >= 1
 c3957_window1978: - x1978 - x1979 - x1980 >= -2
 c3958_window1979: x1979 + x1980 + x1981 >= 1
 c3959_window1979: - x1979 - x1980 - x1981 >= -2
 c3960_window1980: x1980 + x1981 + x1982 >= 1
 c3961_window1980: - x1980 - x1981 - x1982 >= -2
 c3962_window1981: x1981 + x1982 + x1983 >= 1
 c3963_window1981: - x1981 - x1982 - x1983 >= -2
 c3964_window1982: x1982 + x1983 + x1984 >= 1
 c3965_window1982: - x1982 - x1983 - x1984 >= -2
 c3966_window1983: x1983 + x1984 + x1985 >= 1
 c3967_window1983: - x1983 - x1984 - x1985 >= -2
 c3968_window1984: x1984 + x1985 + x1986 >= 1
 c3969_window1984: - x1984 - x1985 - x1986 >= -2
 c3970_window1985: x1985 + x1986 + x1987 >= 1
 c3971_window1985: - x1985 - x1986 - x1987 >= -2
 c3972_window1986: x1986 + x1987 + x1988 >= 1
 c3973_window1986: - x1986 - x1987 - x1988 >= -2
 c3974_window1987: x1987 + x1988 + x1989 >= 1
 c3975_window1987: - x1987 - x1988 - x1989 >= -2
 c3976_window1988: x1988 + x1989 + x1990 >= 1
 c3977_window1988: - x1988 - x1989 - x1990 >= -2
 c3978_window1989: x1989 + x1990 + x1991 >= 1
 c3979_window1989: - x1989 - x1990 - x1991 >= -2
 c3980_window1990: x1990 + x1991 + x1992 >= 1
 c3981_window1990: - x1990 - x1991 - x1992 >= -2
 c3982_window1991: x1991 + x1992 + x1993 >= 1
 c3983_window1991: - x1991 - x1992 - x1993 >= -2
 c3984_window1992: x1992 + x1993 + x1994 >= 1
 c3985_window1992: - x1992 - x1993 - x1994 >= -2
 c3986_window1993: x1993 + x1994 + x1995 >= 1
 c3987_window1993: - x1993 - x1994 - x1995 >= -2
 c3988_window1994: x1994 + x1995 + x1996 >= 1
 c3989_window1994: - x1994 - x1995 - x1996 >= -2
 c3990_window1995: x1995 + x1996 + x1997 >= 1
 c3991_window1995: - x1995 - x1996 - x1997 >= -2
 c3992_window1996: x1996 + x1997 + x1998 >= 1
 c3993_window1996: - x1996 - x1997 - x1998 >= -2
 c3994_window1997: x1997 + x1998 + x1999 >= 1
 c3995_window1997: - x1997 - x1998 - x1999 >= -2
 c3996_window1998: x1998 + x1999 + x2000 >= 1
 c3997_window1998: - x1998 - x1999 - x2000 >= -2
 c3998_window1999: x1999 + x2000 + x2001 >= 1
 c3999_window1999: - x1999 - x2000 - x2001 >= -2
 c4000_window2000: x2000 + x2001 + x2002 >= 1
 c4001_window2000: - x2000 - x2001 - x2002 >= -2
 c4002_window2001: x2001 + x2002 + x2003 >= 1
 c4003_window2001: - x2001 - x2002 - x2003 >= -2
 c4004_window2002: x2002 + x2003 + x2004 >= 1
 c4005_window2002: - x2002 - x2003 - x2004 >= -2
 c4006_window2003: x2003 + x2004 + x2005 >= 1
 c4007_window2003: - x2003 - x2004 - x2005 >= -2
 c4008_window2004: x2004 + x2005 + x2006 >= 1
 c4009_window2004: - x2004 - x2005 - x2006 >= -2
 c4010_window2005: x2005 + x2006 + x2007 >= 1
 c4011_window2005: - x2005 - x2006 - x2007 >= -2
 c4012_window2006: x2006 + x2007 + x2008 >= 1
 c4013_window2006: - x2006 - x2007 - x2008 >= -2
 c4014_window2007: x2007 + x2008 + x2009 >= 1
 c4015_window2007: - x2007 - x2008 - x2009 >= -2
 c4016_window2008: x2008 + x2009 + x2010 >= 1
 c4017_window2008: - x2008 - x2009 - x2010 >= -2
 c4018_window2009: x2009 + x2010 + x2011 >= 1
 c4019_window2009: - x2009 - x2010 - x2011 >= -2
 c4020_window2010: x2010 + x2011 + x2012 >= 1
 c4021_window2010: - x2010 - x2011 - x2012 >= -2
 c4022_window2011: x2011 + x2012 + x2013 >= 1
 c4023_window2011: - x2011 - x2012 - x2013 >= -2
 c4024_window2012: x2012 + x2013 + x2014 >= 1
 c4025_window2012: - x2012 - x2013 - x2014 >= -2
 c4026_window2013: x2013 + x2014 + x2015 >= 1
 c4027_window2013: - x2013 - x2014 - x2015 >= -2
 c4028_window2014: x2014 + x2015 + x2016 >= 1
 c4029_window2014: - x2014 - x2015 - x2016 >= -2
 c4030_window2015: x2015 + x2016 + x2017 >= 1
 c4031_window2015: - x2015 - x2016 - x2017 >= -2
 c4032_window2016: x2016 + x2017 + x2018 >= 1
 c4033_window2016: - x2016 - x2017 - x2018 >= -2
 c4034_window2017: x2017 + x2018 + x2019 >= 1
 c4035_window2017: - x2017 - x2018 - x2019 >= -2
 c4036_window2018: x2018 + x2019 + x2020 >= 1
 c4037_window2018: - x2018 - x2019 - x2020 >= -2
 c4038_window2019: x2019 + x2020 + x2021 >= 1
 c4039_window2019: - x2019 - x2020 - x2021 >= -2
 c4040_window2020: x2020 + x2021 + x2022 >= 1
 c4041_window2020: - x2020 - x2021 - x2022 >= -2
 c4042_window2021: x2021 + x2022 + x2023 >= 1
 c4043_window2021: - x2021 - x2022 - x2023 >= -2
 c4044_window2022: x2022 + x2023 + x2024 >= 1
 c4045_window2022: - x2022 - x2023 - x2024 >= -2
 c4046_window2023: x2023 + x2024 + x2025 >= 1
 c4047_window2023: - x2023 - x2024 - x2025 >= -2
 c4048_window2024: x2024 + x2025 + x2026 >= 1
 c4049_window2024: - x2024 - x2025 - x2026 >= -2
 c4050_window2025: x2025 + x2026 + x2027 >= 1
 c4051_window2025: - x2025 - x2026 - x2027 >= -2
 c4052_window2026: x2026 + x2027 + x2028 >= 1
 c4053_window2026: - x2026 - x2027 - x2028 >= -2
 c4054_window2027: x2027 + x2028 + x2029 >= 1
 c4055_window2027: - x2027 - x2028 - x2029 >= -2
 c4056_window2028: x2028 + x2029 + x2030 >= 1
 c4057_window2028: - x2028 - x2029 - x2030 >= -2
 c4058_window2029: x2029 + x2030 + x2031 >= 1
 c4059_window2029: - x2029 - x2030 - x2031 >= -2
 c4060_window2030: x2030 + x2031 + x2032 >= 1
 c4061_window2030: - x2030 - x2031 - x2032 >= -2
 c4062_window2031: x2031 + x2032 + x2033 >= 1
 c4063_window2031: - x2031 - x2032 - x2033 >= -2
 c4064_window2032: x2032 + x2033 + x2034 >= 1
 c4065_window2032: - x2032 - x2033 - x2034 >= -2
 c4066_window2033: x2033 + x2034 + x2035 >= 1
 c4067_window2033: - x2033 - x2034 - x2035 >= -2
 c4068_window2034: x2034 + x2035 + x2036 >= 1
 c4069_window2034: - x2034 - x2035 - x2036 >= -2
 c4070_window2035: x2035 + x2036 + x2037 >= 1
 c4071_window2035: - x2035 - x2036 - x2037 >= -2
 c4072_window2036: x2036 + x2037 + x2038 >= 1
 c4073_window2036: - x2036 - x2037 - x2038 >= -2
 c4074_window2037: x2037 + x2038 + x2039 >= 1
 c4075_window2037: - x2037 - x2038 - x2039 >= -2
 c4076_window2038: x2038 + x2039 + x2040 >= 1
 c4077_window2038: - x2038 - x2039 - x2040 >= -2
 c4078_window2039: x2039 + x2040 + x2041 >= 1
 c4079_window2039: - x2039 - x2040 - x2041 >= -2
 c4080_window2040: x2040 + x2041 + x2042 >= 1
 c4081_window2040: - x2040 - x2041 - x2042 >= -2
 c4082_window2041: x2041 + x2042 + x2043 >= 1
 c4083_window2041: - x2041 - x2042 - x2043 >= -2
 c4084_window2042: x2042 + x2043 + x2044 >= 1
 c4085_window2042: - x2042 - x2043 - x2044 >= -2
 c4086_window2043: x2043 + x2044 + x2045 >= 1
 c4087_window2043: - x2043 - x2044 - x2045 >= -2
 c4088_window2044: x2044 + x2045 + x2046 >= 1
 c4089_window2044: - x2044 - x2045 - x2046 >= -2
 c4090_window2045: x2045 + x2046 + x2047 >= 1
 c4091_window2045: - x2045 - x2046 - x2047 >= -2
Binary
 x0
 x1
 x2
 x3
 x4
 x5
 x6
 x7
 x8
 x9
 x10
 x11
 x12
 x13
 x14
 x15
 x16
 x17
 x18
 x19
 x20
 x21
 x22
 x23
 x24
 x25
 x26
 x27
 x28
 x29
 x30
 x31
 x32
 x33
 x34
 x35
 x36
 x37
 x38
 x39
 x40
 x41
 x42
 x43
 x44
 x45
 x46
 x47
 x48
 x49
 x50
 x51
 x52
 x53
 x54
 x55
 x56
 x57
 x58
 x59
 x60
 x61
 x62
 x63
 x64
 x65
 x66
 x67
 x68
 x69
 x70
 x71
 x72
 x73
 x74
 x75
 x76
 x77
 x78
 x79
 x80
 x81
 x82
 x83
 x84
 x85
 x86
 x87
 x88
 x89
 x90
 x91
 x92
 x93
 x94
 x95
 x96
 x97
 x98
 x99
 x100
 x101
 x102
 x103
 x104
 x105
 x106
 x107
 x108
 x109
 x110
 x111
 x112
 x113
 x114
 x115
 x116
 x117
 x118
 x119
 x120
 x121
 x122
 x123
 x124
 x125
 x126
 x127
 x128
 x129
 x130
 x131
 x132
 x133
 x134
 x135
 x136
 x137
 x138
 x139
 x140
 x141
 x142
 x143
 x144
 x145
 x146
 x147
 x148
 x149
 x150
 x151
 x152
 x153
 x154
 x155
 x156
 x157
 x158
 x159
 x160
 x161
 x162
 x163
 x164
 x165
 x166
 x167
 x168
 x169
 x170
 x171
 x172
 x173
 x174
 x175
 x176
 x177
 x178
 x179
 x180
 x181
 x182
 x183
 x184
 x185
 x186
 x187
 x188
 x189
 x190
 x191
 x192
 x193
 x194
 x195
 x196
 x197
 x198
 x199
 x200
 x201
 x202
 x203
 x204
 x205
 x206
 x207
 x208
 x209
 x210
 x211
 x212
 x213
 x214
 x215
 x216
 x217
 x218
 x219
 x220
 x221
 x222
 x223
 x224
 x225
 x226
 x227
 x228
 x229
 x230
 x231
 x232
 x233
 x234
 x235
 x236
 x237
 x238
 x239
 x240
 x241
 x242
 x243
 x244
 x245
 x246
 x247
 x248
 x249
 x250
 x251
 x252
 x253
 x254
 x255
 x256
 x257
 x258
 x259
 x260
 x261
 x262
 x263
 x264
 x265
 x266
 x267
 x268
 x269
 x270
 x271
 x272
 x273
 x274
 x275
 x276
 x277
 x278
 x279
 x280
 x281
 x282
 x283
 x284
 x285
 x286
 x287
 x288
 x289
 x290
 x291
 x292
 x293
 x294
 x295
 x296
 x297
 x298
 x299
 x300
 x301
 x302
 x303
 x304
 x305
 x306
 x307
 x308
 x309
 x310
 x311
 x312
 x313
 x314
 x315
 x316
 x317
 x318
 x319
 x320
 x321
 x322
 x323
 x324
 x325
 x326
 x327
 x328
 x329
 x330
 x331
 x332
 x333
 x334
 x335
 x336
 x337
 x338
 x339
 x340
 x341
 x342
 x343
 x344
 x345
 x346
 x347
 x348
 x349
 x350
 x351
 x352
 x353
 x354
 x355
 x356
 x357
 x358
 x359
 x360
 x361
 x362
 x363
 x364
 x365
 x366
 x367
 x368
 x369
 x370
 x371
 x372
 x373
 x374
 x375
 x376
 x377
 x378
 x379
 x380
 x381
 x382
 x383
 x384
 x385
 x386
 x387
 x388
 x389
 x390
 x391
 x392
 x393
 x394
 x395
 x396
 x397
 x398
 x399
 x400
 x401
 x402
 x403
 x404
 x405
 x406
 x407
 x408
 x409
 x410
 x411
 x412
 x413
 x414
 x415
 x416
 x417
 x418
 x419
 x420
 x421
 x422
 x423
 x424
 x425
 x426
 x427
 x428
 x429
 x430
 x431
 x432
 x433
 x434
 x435
 x436
 x437
 x438
 x439
 x440
 x441
 x442
 x443
 x444
 x445
 x446
 x447
 x448
 x449
 x450
 x451
 x452
 x453
 x454
 x455
 x456
 x457
 x458
 x459
 x460
 x461
 x462
 x463
 x464
 x465
 x466
 x467
 x468
 x469
 x470
 x471
 x472
 x473
 x474
 x475
 x476
 x477
 x478
 x479
 x480
 x481
 x482
 x483
 x484
 x485
 x486
 x487
 x488
 x489
 x490
 x491
 x492
 x493
 x494
 x495
 x496
 x497
 x498
 x499
 x500
 x501
 x502
 x503
 x504
 x505
 x506
 x507
 x508
 x509
 x510
 x511
 x512
 x513
 x514
 x515
 x516
 x517
 x518
 x519
 x520
 x521
 x522
 x523
 x524
 x525
 x526
 x527
 x528
 x529
 x530
 x531
 x532
 x533
 x534
 x535
 x536
 x537
 x538
 x539
 x540
 x541
 x542
 x543
 x544
 x545
 x546
 x547
 x548
 x549
 x550
 x551
 x552
 x553
 x554
 x555
 x556
 x557
 x558
 x559
 x560
 x561
 x562
 x563
 x564
 x565
 x566
 x567
 x568
 x569
 x570
 x571
 x572
 x573
 x574
 x575
 x576
 x577
 x578
 x579
 x580
 x581
 x582
 x583
 x584
 x585
 x586
 x587
 x588
 x589
 x590
 x591
 x592
 x593
 x594
 x595
 x596
 x597
 x598
 x599
 x600
 x601
 x602
 x603
 x604
 x605
 x606
 x607
 x608
 x609
 x610
 x611
 x612
 x613
 x614
 x615
 x616
 x617
 x618
 x619
 x620
 x621
 x622
 x623
 x624
 x625
 x626
 x627
 x628
 x629
 x630
 x631
 x632
 x633
 x634
 x635
 x636
 x637
 x638
 x639
 x640
 x641
 x642
 x643
 x644
 x645
 x646
 x647
 x648
 x649
 x650
 x651
 x652
 x653
 x654
 x655
 x656
 x657
 x658
 x659
 x660
 x661
 x662
 x663
 x664
 x665
 x666
 x667
 x668
 x669
 x670
 x671
 x672
 x673
 x674
 x675
 x676
 x677
 x678
 x679
 x680
 x681
 x682
 x683
 x684
 x685
 x686
 x687
 x688
 x689
 x690
 x691
 x692
 x693
 x694
 x695
 x696
 x697
 x698
 x699
 x700
 x701
 x702
 x703
 x704
 x705
 x706
 x707
 x708
 x709
 x710
 x711
 x712
 x713
 x714
 x715
 x716
 x717
 x718
 x719
 x720
 x721
 x722
 x723
 x724
 x725
 x726
 x727
 x728
 x729
 x730
 x731
 x732
 x733
 x734
 x735
 x736
 x737
 x738
 x739
 x740
 x741
 x742
 x743
 x744
 x745
 x746
 x747
 x748
 x749
 x750
 x751
 x752
 x753
 x754
 x755
 x756
 x757
 x758
 x759
 x760
 x761
 x762
 x763
 x764
 x765
 x766
 x767
 x768
 x769
 x770
 x771
 x772
 x773
 x774
 x775
 x776
 x777
 x778
 x779
 x780
 x781
 x782
 x783
 x784
 x785
 x786
 x787
 x788
 x789
 x790
 x791
 x792
 x793
 x794
 x795
 x796
 x797
 x798
 x799
 x800
 x801
 x802
 x803
 x804
 x805
 x806
 x807
 x808
 x809
 x810
 x811
 x812
 x813
 x814
 x815
 x816
 x817
 x818
 x819
 x820
 x821
 x822
 x823
 x824
 x825
 x826
 x827
 x828
 x829
 x830
 x831
 x832
 x833
 x834
 x835
 x836
 x837
 x838
 x839
 x840
 x841
 x842
 x843
 x844
 x845
 x846
 x847
 x848
 x849
 x850
 x851
 x852
 x853
 x854
 x855
 x856
 x857
 x858
 x859
 x860
 x861
 x862
 x863
 x864
 x865
 x866
 x867
 x868
 x869
 x870
 x871
 x872
 x873
 x874
 x875
 x876
 x877
 x878
 x879
 x880
 x881
 x882
 x883
 x884
 x885
 x886
 x887
 x888
 x889
 x890
 x891
 x892
 x893
 x894
 x895
 x896
 x897
 x898
 x899
 x900
 x901
 x902
 x903
 x904
 x905
 x906
 x907
 x908
 x909
 x910
 x911
 x912
 x913
 x914
 x915
 x916
 x917
 x918
 x919
 x920
 x921
 x922
 x923
 x924
 x925
 x926
 x927
 x928
 x929
 x930
 x931
 x932
 x933
 x934
 x935
 x936
 x937
 x938
 x939
 x940
 x941
 x942
 x943
 x944
 x945
 x946
 x947
 x948
 x949
 x950
 x951
 x952
 x953
 x954
 x955
 x956
 x957
 x958
 x959
 x960
 x961
 x962
 x963
 x964
 x965
 x966
 x967
 x968
 x969
 x970
 x971
 x972
 x973
 x974
 x975
 x976
 x977
 x978
 x979
 x980
 x981
 x982
 x983
 x984
 x985
 x986
 x987
 x988
 x989
 x990
 x991
 x992
 x993
 x994
 x995
 x996
 x997
 x998
 x999
 x1000
 x1001
 x1002
 x1003
 x1004
 x1005
 x1006
 x1007
 x1008
 x1009
 x1010
 x1011
 x1012
 x1013
 x1014
 x1015
 x1016
 x1017
 x1018
 x1019
 x1020
 x1021
 x1022
 x1023
 x1024
 x1025
 x1026
 x1027
 x1028
 x1029
 x1030
 x1031
 x1032
 x1033
 x1034
 x1035
 x1036
 x1037
 x1038
 x1039
 x1040
 x1041
 x1042
 x1043
 x1044
 x1045
 x1046
 x1047
 x1048
 x1049
 x1050
 x1051
 x1052
 x1053
 x1054
 x1055
 x1056
 x1057
 x1058
 x1059
 x1060
 x1061
 x1062
 x1063
 x1064
 x1065
 x1066
 x1067
 x1068
 x1069
 x1070
 x1071
 x1072
 x1073
 x1074
 x1075
 x1076
 x1077
 x1078
 x1079
 x1080
 x1081
 x1082
 x1083
 x1084
 x1085
 x1086
 x1087
 x1088
 x1089
 x1090
 x1091
 x1092
 x1093
 x1094
 x1095
 x1096
 x1097
 x1098
 x1099
 x1100
 x1101
 x1102
 x1103
 x1104
 x1105
 x1106
 x1107
 x1108
 x1109
 x1110
 x1111
 x1112
 x1113
 x1114
 x1115
 x1116
 x1117
 x1118
 x1119
 x1120
 x1121
 x1122
 x1123
 x1124
 x1125
 x1126
 x1127
 x1128
 x1129
 x1130
 x1131
 x1132
 x1133
 x1134
 x1135
 x1136
 x1137
 x1138
 x1139
 x1140
 x1141
 x1142
 x1143
 x1144
 x1145
 x1146
 x1147
 x1148
 x1149
 x1150
 x1151
 x1152
 x1153
 x1154
 x1155
 x1156
 x1157
 x1158
 x1159
 x1160
 x1161
 x1162
 x1163
 x1164
 x1165
 x1166
 x1167
 x1168
 x1169
 x1170
 x1171
 x1172
 x1173
 x1174
 x1175
 x1176
 x1177
 x1178
 x1179
 x1180
 x1181
 x1182
 x1183
 x1184
 x1185
 x1186
 x1187
 x1188
 x1189
 x1190
 x1191
 x1192
 x1193
 x1194
 x1195
 x1196
 x1197
 x1198
 x1199
 x1200
 x1201
 x1202
 x1203
 x1204
 x1205
 x1206
 x1207
 x1208
 x1209
 x1210
 x1211
 x1212
 x1213
 x1214
 x1215
 x1216
 x1217
 x1218
 x1219
 x1220
 x1221
 x1222
 x1223
 x1224
 x1225
 x1226
 x1227
 x1228
 x1229
 x1230
 x1231
 x1232
 x1233
 x1234
 x1235
 x1236
 x1237
 x1238
 x1239
 x1240
 x1241
 x1242
 x1243
 x1244
 x1245
 x1246
 x1247
 x1248
 x1249
 x1250
 x1251
 x1252
 x1253
 x1254
 x1255
 x1256
 x1257
 x1258
 x1259
 x1260
 x1261
 x1262
 x1263
 x1264
 x1265
 x1266
 x1267
 x1268
 x1269
 x1270
 x1271
 x1272
 x1273
 x1274
 x1275
 x1276
 x1277
 x1278
 x1279
 x1280
 x1281
 x1282
 x1283
 x1284
 x1285
 x1286
 x1287
 x1288
 x1289
 x1290
 x1291
 x1292
 x1293
 x1294
 x1295
 x1296
 x1297
 x1298
 x1299
 x1300
 x1301
 x1302
 x1303
 x1304
 x1305
 x1306
 x1307
 x1308
 x1309
 x1310
 x1311
 x1312
 x1313
 x1314
 x1315
 x1316
 x1317
 x1318
 x1319
 x1320
 x1321
 x1322
 x1323
 x1324
 x1325
 x1326
 x1327
 x1328
 x1329
 x1330
 x1331
 x1332
 x1333
 x1334
 x1335
 x1336
 x1337
 x1338
 x1339
 x1340
 x1341
 x1342
 x1343
 x1344
 x1345
 x1346
 x1347
 x1348
 x1349
 x1350
 x1351
 x1352
 x1353
 x1354
 x1355
 x1356
 x1357
 x1358
 x1359
 x1360
 x1361
 x1362
 x1363
 x1364
 x1365
 x1366
 x1367
 x1368
 x1369
 x1370
 x1371
 x1372
 x1373
 x1374
 x1375
 x1376
 x1377
 x1378
 x1379
 x1380
 x1381
 x1382
 x1383
 x1384
 x1385
 x1386
 x1387
 x1388
 x1389
 x1390
 x1391
 x1392
 x1393
 x1394
 x1395
 x1396
 x1397
 x1398
 x1399
 x1400
 x1401
 x1402
 x1403
 x1404
 x1405
 x1406
 x1407
 x1408
 x1409
 x1410
 x1411
 x1412
 x1413
 x1414
 x1415
 x1416
 x1417
 x1418
 x1419
 x1420
 x1421
 x1422
 x1423
 x1424
 x1425
 x1426
 x1427
 x1428
 x1429
 x1430
 x1431
 x1432
 x1433
 x1434
 x1435
 x1436
 x1437
 x1438
 x1439
 x1440
 x1441
 x1442
 x1443
 x1444
 x1445
 x1446
 x1447
 x1448
 x1449
 x1450
 x1451
 x1452
 x1453
 x1454
 x1455
 x1456
 x1457
 x1458
 x1459
 x1460
 x1461
 x1462
 x1463
 x1464
 x1465
 x1466
 x1467
 x1468
 x1469
 x1470
 x1471
 x1472
 x1473
 x1474
 x1475
 x1476
 x1477
 x1478
 x1479
 x1480
 x1481
 x1482
 x1483
 x1484
 x1485
 x1486
 x1487
 x1488
 x1489
 x1490
 x1491
 x1492
 x1493
 x1494
 x1495
 x1496
 x1497
 x1498
 x1499
 x1500
 x1501
 x1502
 x1503
 x1504
 x1505
 x1506
 x1507
 x1508
 x1509
 x1510
 x1511
 x1512
 x1513
 x1514
 x1515
 x1516
 x1517
 x1518
 x1519
 x1520
 x1521
 x1522
 x1523
 x1524
 x1525
 x1526
 x1527
 x1528
 x1529
 x1530
 x1531
 x1532
 x1533
 x1534
 x1535
 x1536
 x1537
 x1538
 x1539
 x1540
 x1541
 x1542
 x1543
 x1544
 x1545
 x1546
 x1547
 x1548
 x1549
 x1550
 x1551
 x1552
 x1553
 x1554
 x1555
 x1556
 x1557
 x1558
 x1559
 x1560
 x1561
 x1562
 x1563
 x1564
 x1565
 x1566
 x1567
 x1568
 x1569
 x1570
 x1571
 x1572
 x1573
 x1574
 x1575
 x1576
 x1577
 x1578
 x1579
 x1580
 x1581
 x1582
 x1583
 x1584
 x1585
 x1586
 x1587
 x1588
 x1589
 x1590
 x1591
 x1592
 x1593
 x1594
 x1595
 x1596
 x1597
 x1598
 x1599
 x1600
 x1601
 x1602
 x1603
 x1604
 x1605
 x1606
 x1607
 x1608
 x1609
 x1610
 x1611
 x1612
 x1613
 x1614
 x1615
 x1616
 x1617
 x1618
 x1619
 x1620
 x1621
 x1622
 x1623
 x1624
 x1625
 x1626
 x1627
 x1628
 x1629
 x1630
 x1631
 x1632
 x1633
 x1634
 x1635
 x1636
 x1637
 x1638
 x1639
 x1640
 x1641
 x1642
 x1643
 x1644
 x1645
 x1646
 x1647
 x1648
 x1649
 x1650
 x1651
 x1652
 x1653
 x1654
 x1655
 x1656
 x1657
 x1658
 x1659
 x1660
 x1661
 x1662
 x1663
 x1664
 x1665
 x1666
 x1667
 x1668
 x1669
 x1670
 x1671
 x1672
 x1673
 x1674
 x1675
 x1676
 x1677
 x1678
 x1679
 x1680
 x1681
 x1682
 x1683
 x1684
 x1685
 x1686
 x1687
 x1688
 x1689
 x1690
 x1691
 x1692
 x1693
 x1694
 x1695
 x1696
 x1697
 x1698
 x1699
 x1700
 x1701
 x1702
 x1703
 x1704
 x1705
 x1706
 x1707
 x1708
 x1709
 x1710
 x1711
 x1712
 x1713
 x1714
 x1715
 x1716
 x1717
 x1718
 x1719
 x1720
 x1721
 x1722
 x1723
 x1724
 x1725
 x1726
 x1727
 x1728
 x1729
 x1730
 x1731
 x1732
 x1733
 x1734
 x1735
 x1736
 x1737
 x1738
 x1739
 x1740
 x1741
 x1742
 x1743
 x1744
 x1745
 x1746
 x1747
 x1748
 x1749
 x1750
 x1751
 x1752
 x1753
 x1754
 x1755
 x1756
 x1757
 x1758
 x1759
 x1760
 x1761
 x1762
 x1763
 x1764
 x1765
 x1766
 x1767
 x1768
 x1769
 x1770
 x1771
 x1772
 x1773
 x1774
 x1775
 x1776
 x1777
 x1778
 x1779
 x1780
 x1781
 x1782
 x1783
 x1784
 x1785
 x1786
 x1787
 x1788
 x1789
 x1790
 x1791
 x1792
 x1793
 x1794
 x1795
 x1796
 x1797
 x1798
 x1799
 x1800
 x1801
 x1802
 x1803
 x1804
 x1805
 x1806
 x1807
 x1808
 x1809
 x1810
 x1811
 x1812
 x1813
 x1814
 x1815
 x1816
 x1817
 x1818
 x1819
 x1820
 x1821
 x1822
 x1823
 x1824
 x1825
 x1826
 x1827
 x1828
 x1829
 x1830
 x1831
 x1832
 x1833
 x1834
 x1835
 x1836
 x1837
 x1838
 x1839
 x1840
 x1841
 x1842
 x1843
 x1844
 x1845
 x1846
 x1847
 x1848
 x1849
 x1850
 x1851
 x1852
 x1853
 x1854
 x1855
 x1856
 x1857
 x1858
 x1859
 x1860
 x1861
 x1862
 x1863
 x1864
 x1865
 x1866
 x1867
 x1868
 x1869
 x1870
 x1871
 x1872
 x1873
 x1874
 x1875
 x1876
 x1877
 x1878
 x1879
 x1880
 x1881
 x1882
 x1883
 x1884
 x1885
 x1886
 x1887
 x1888
 x1889
 x1890
 x1891
 x1892
 x1893
 x1894
 x1895
 x1896
 x1897
 x1898
 x1899
 x1900
 x1901
 x1902
 x1903
 x1904
 x1905
 x1906
 x1907
 x1908
 x1909
 x1910
 x1911
 x1912
 x1913
 x1914
 x1915
 x1916
 x1917
 x1918
 x1919
 x1920
 x1921
 x1922
 x1923
 x1924
 x1925
 x1926
 x1927
 x1928
 x1929
 x1930
 x1931
 x1932
 x1933
 x1934
 x1935
 x1936
 x1937
 x1938
 x1939
 x1940
 x1941
 x1942
 x1943
 x1944
 x1945
 x1946
 x1947
 x1948
 x1949
 x1950
 x1951
 x1952
 x1953
 x1954
 x1955
 x1956
 x1957
 x1958
 x1959
 x1960
 x1961
 x1962
 x1963
 x1964
 x1965
 x1966
 x1967
 x1968
 x1969
 x1970
 x1971
 x1972
 x1973
 x1974
 x1975
 x1976
 x1977
 x1978
 x1979
 x1980
 x1981
 x1982
 x1983
 x1984
 x1985
 x1986
 x1987
 x1988
 x1989
 x1990
 x1991
 x1992
 x1993
 x1994
 x1995
 x1996
 x1997
 x1998
 x1999
 x2000
 x2001
 x2002
 x2003
 x2004
 x2005
 x2006
 x2007
 x2008
 x2009
 x2010
 x2011
 x2012
 x2013
 x2014
 x2015
 x2016
 x2017
 x2018
 x2019
 x2020
 x2021
 x2022
 x2023
 x2024
 x2025
 x2026
 x2027
 x2028
 x2029
 x2030
 x2031
 x2032
 x2033
 x2034
 x2035
 x2036
 x2037
 x2038
 x2039
 x2040
 x2041
 x2042
 x2043
 x2044
 x2045
 x2046
 x2047
End
