c var 1 x0
c var 2 x1
c var 3 x2
c var 4 x3
c var 5 x4
c var 6 x5
c var 7 x6
c var 8 x7
c var 9 x8
c var 10 x9
c var 11 x10
c var 12 x11
c var 13 x12
c var 14 x13
c var 15 x14
c var 16 x15
c var 17 x16
c var 18 x17
c var 19 x18
c var 20 x19
c var 21 x20
c var 22 x21
c var 23 x22
c var 24 x23
c var 25 x24
c var 26 x25
c var 27 x26
c var 28 x27
c var 29 x28
c var 30 x29
c var 31 x30
c var 32 x31
c forbid neq0_1 {'x0': 0, 'x1': 0}
c forbid neq0_1 {'x0': 1, 'x1': 1}
c forbid neq1_2 {'x1': 0, 'x2': 0}
c forbid neq1_2 {'x1': 1, 'x2': 1}
c forbid neq2_3 {'x2': 0, 'x3': 0}
c forbid neq2_3 {'x2': 1, 'x3': 1}
c forbid neq3_4 {'x3': 0, 'x4': 0}
c forbid neq3_4 {'x3': 1, 'x4': 1}
c forbid neq4_5 {'x4': 0, 'x5': 0}
c forbid neq4_5 {'x4': 1, 'x5': 1}
c forbid neq5_6 {'x5': 0, 'x6': 0}
c forbid neq5_6 {'x5': 1, 'x6': 1}
c forbid neq6_7 {'x6': 0, 'x7': 0}
c forbid neq6_7 {'x6': 1, 'x7': 1}
c forbid neq7_8 {'x7': 0, 'x8': 0}
c forbid neq7_8 {'x7': 1, 'x8': 1}
c forbid neq8_9 {'x8': 0, 'x9': 0}
c forbid neq8_9 {'x8': 1, 'x9': 1}
c forbid neq9_10 {'x9': 0, 'x10': 0}
c forbid neq9_10 {'x9': 1, 'x10': 1}
c forbid neq10_11 {'x10': 0, 'x11': 0}
c forbid neq10_11 {'x10': 1, 'x11': 1}
c forbid neq11_12 {'x11': 0, 'x12': 0}
c forbid neq11_12 {'x11': 1, 'x12': 1}
c forbid neq12_13 {'x12': 0, 'x13': 0}
c forbid neq12_13 {'x12': 1, 'x13': 1}
c forbid neq13_14 {'x13': 0, 'x14': 0}
c forbid neq13_14 {'x13': 1, 'x14': 1}
c forbid neq14_15 {'x14': 0, 'x15': 0}
c forbid neq14_15 {'x14': 1, 'x15': 1}
c forbid neq15_16 {'x15': 0, 'x16': 0}
c forbid neq15_16 {'x15': 1, 'x16': 1}
c forbid neq16_17 {'x16': 0, 'x17': 0}
c forbid neq16_17 {'x16': 1, 'x17': 1}
c forbid neq17_18 {'x17': 0, 'x18': 0}
c forbid neq17_18 {'x17': 1, 'x18': 1}
c forbid neq18_19 {'x18': 0, 'x19': 0}
c forbid neq18_19 {'x18': 1, 'x19': 1}
c forbid neq19_20 {'x19': 0, 'x20': 0}
c forbid neq19_20 {'x19': 1, 'x20': 1}
c forbid neq20_21 {'x20': 0, 'x21': 0}
c forbid neq20_21 {'x20': 1, 'x21': 1}
c forbid neq21_22 {'x21': 0, 'x22': 0}
c forbid neq21_22 {'x21': 1, 'x22': 1}
c forbid neq22_23 {'x22': 0, 'x23': 0}
c forbid neq22_23 {'x22': 1, 'x23': 1}
c forbid neq23_24 {'x23': 0, 'x24': 0}
c forbid neq23_24 {'x23': 1, 'x24': 1}
c forbid neq24_25 {'x24': 0, 'x25': 0}
c forbid neq24_25 {'x24': 1, 'x25': 1}
c forbid neq25_26 {'x25': 0, 'x26': 0}
c forbid neq25_26 {'x25': 1, 'x26': 1}
c forbid neq26_27 {'x26': 0, 'x27': 0}
c forbid neq26_27 {'x26': 1, 'x27': 1}
c forbid neq27_28 {'x27': 0, 'x28': 0}
c forbid neq27_28 {'x27': 1, 'x28': 1}
c forbid neq28_29 {'x28': 0, 'x29': 0}
c forbid neq28_29 {'x28': 1, 'x29': 1}
c forbid neq29_30 {'x29': 0, 'x30': 0}
c forbid neq29_30 {'x29': 1, 'x30': 1}
c forbid neq30_31 {'x30': 0, 'x31': 0}
c forbid neq30_31 {'x30': 1, 'x31': 1}
p cnf 32 62
1 2 0
-1 -2 0
2 3 0
-2 -3 0
3 4 0
-3 -4 0
4 5 0
-4 -5 0
5 6 0
-5 -6 0
6 7 0
-6 -7 0
7 8 0
-7 -8 0
8 9 0
-8 -9 0
9 10 0
-9 -10 0
10 11 0
-10 -11 0
11 12 0
-11 -12 0
12 13 0
-12 -13 0
13 14 0
-13 -14 0
14 15 0
-14 -15 0
15 16 0
-15 -16 0
16 17 0
-16 -17 0
17 18 0
-17 -18 0
18 19 0
-18 -19 0
19 20 0
-19 -20 0
20 21 0
-20 -21 0
21 22 0
-21 -22 0
22 23 0
-22 -23 0
23 24 0
-23 -24 0
24 25 0
-24 -25 0
25 26 0
-25 -26 0
26 27 0
-26 -27 0
27 28 0
-27 -28 0
28 29 0
-28 -29 0
29 30 0
-29 -30 0
30 31 0
-30 -31 0
31 32 0
-31 -32 0
