\ Boolean forbidden-tuple encoding
Minimize
 obj: 0
Subject To
 c0_h0_0: x0_0 + x0_1 >= 1
 c1_h0_0: - x0_0 - x0_1 >= -1
 c2_h0_1: x0_1 + x0_2 >= 1
 c3_h0_1: - x0_1 - x0_2 >= -1
 c4_h0_2: x0_2 + x0_3 >= 1
 c5_h0_2: - x0_2 - x0_3 >= -1
 c6_h0_3: x0_3 + x0_4 >= 1
 c7_h0_3: - x0_3 - x0_4 >= -1
 c8_h0_4: x0_4 + x0_5 >= 1
 c9_h0_4: - x0_4 - x0_5 >= -1
 c10_h0_5: x0_5 + x0_6 >= 1
 c11_h0_5: - x0_5 - x0_6 >= -1
 c12_h0_6: x0_6 + x0_7 >= 1
 c13_h0_6: - x0_6 - x0_7 >= -1
 c14_h0_7: x0_7 + x0_8 >= 1
 c15_h0_7: - x0_7 - x0_8 >= -1
 c16_h0_8: x0_8 + x0_9 >= 1
 c17_h0_8: - x0_8 - x0_9 >= -1
 c18_h0_9: x0_9 + x0_10 >= 1
 c19_h0_9: - x0_9 - x0_10 >= -1
 c20_h0_10: x0_10 + x0_11 >= 1
 c21_h0_10: - x0_10 - x0_11 >= -1
 c22_h0_11: x0_11 + x0_12 >= 1
 c23_h0_11: - x0_11 - x0_12 >= -1
 c24_h0_12: x0_12 + x0_13 >= 1
 c25_h0_12: - x0_12 - x0_13 >= -1
 c26_h0_13: x0_13 + x0_14 >= 1
 c27_h0_13: - x0_13 - x0_14 >= -1
 c28_h0_14: x0_14 + x0_15 >= 1
 c29_h0_14: - x0_14 - x0_15 >= -1
 c30_h1_0: x1_0 + x1_1 >= 1
 c31_h1_0: - x1_0 - x1_1 >= -1
 c32_h1_1: x1_1 + x1_2 >= 1
 c33_h1_1: - x1_1 - x1_2 >= -1
 c34_h1_2: x1_2 + x1_3 >= 1
 c35_h1_2: - x1_2 - x1_3 >= -1
 c36_h1_3: x1_3 + x1_4 >= 1
 c37_h1_3: - x1_3 - x1_4 >= -1
 c38_h1_4: x1_4 + x1_5 >= 1
 c39_h1_4: - x1_4 - x1_5 >= -1
 c40_h1_5: x1_5 + x1_6 >= 1
 c41_h1_5: - x1_5 - x1_6 >= -1
 c42_h1_6: x1_6 + x1_7 >= 1
 c43_h1_6: - x1_6 - x1_7 >= -1
 c44_h1_7: x1_7 + x1_8 >= 1
 c45_h1_7: - x1_7 - x1_8 >= -1
 c46_h1_8: x1_8 + x1_9 >= 1
 c47_h1_8: - x1_8 - x1_9 >= -1
 c48_h1_9: x1_9 + x1_10 >= 1
 c49_h1_9: - x1_9 - x1_10 >= -1
 c50_h1_10: x1_10 + x1_11 >= 1
 c51_h1_10: - x1_10 - x1_11 >= -1
 c52_h1_11: x1_11 + x1_12 >= 1
 c53_h1_11: - x1_11 - x1_12 >= -1
 c54_h1_12: x1_12 + x1_13 >= 1
 c55_h1_12: - x1_12 - x1_13 >= -1
 c56_h1_13: x1_13 + x1_14 >= 1
 c57_h1_13: - x1_13 - x1_14 >= -1
 c58_h1_14: x1_14 + x1_15 >= 1
 c59_h1_14: - x1_14 - x1_15 >= -1
 c60_v0_0: x0_0 + x1_0 >= 1
 c61_v0_0: - x0_0 - x1_0 >= -1
 c62_v0_1: x0_1 + x1_1 >= 1
 c63_v0_1: - x0_1 - x1_1 >= -1
 c64_v0_2: x0_2 + x1_2 >= 1
 c65_v0_2: - x0_2 - x1_2 >= -1
 c66_v0_3: x0_3 + x1_3 >= 1
 c67_v0_3: - x0_3 - x1_3 >= -1
 c68_v0_4: x0_4 + x1_4 >= 1
 c69_v0_4: - x0_4 - x1_4 >= -1
 c70_v0_5: x0_5 + x1_5 >= 1
 c71_v0_5: - x0_5 - x1_5 >= -1
 c72_v0_6: x0_6 + x1_6 >= 1
 c73_v0_6: - x0_6 - x1_6 >= -1
 c74_v0_7: x0_7 + x1_7 >= 1
 c75_v0_7: - x0_7 - x1_7 >= -1
 c76_v0_8: x0_8 + x1_8 >= 1
 c77_v0_8: - x0_8 - x1_8 >= -1
 c78_v0_9: x0_9 + x1_9 >= 1
 c79_v0_9: - x0_9 - x1_9 >= -1
 c80_v0_10: x0_10 + x1_10 >= 1
 c81_v0_10: - x0_10 - x1_10 >= -1
 c82_v0_11: x0_11 + x1_11 >= 1
 c83_v0_11: - x0_11 - x1_11 >= -1
 c84_v0_12: x0_12 + x1_12 >= 1
 c85_v0_12: - x0_12 - x1_12 >= -1
 c86_v0_13: x0_13 + x1_13 >= 1
 c87_v0_13: - x0_13 - x1_13 >= -1
 c88_v0_14: x0_14 + x1_14 >= 1
 c89_v0_14: - x0_14 - x1_14 >= -1
 c90_v0_15: x0_15 + x1_15 >= 1
 c91_v0_15: - x0_15 - x1_15 >= -1
Binary
 x0_0
 x0_1
 x0_2
 x0_3
 x0_4
 x0_5
 x0_6
 x0_7
 x0_8
 x0_9
 x0_10
 x0_11
 x0_12
 x0_13
 x0_14
 x0_15
 x1_0
 x1_1
 x1_2
 x1_3
 x1_4
 x1_5
 x1_6
 x1_7
 x1_8
 x1_9
 x1_10
 x1_11
 x1_12
 x1_13
 x1_14
 x1_15
End
