\ Boolean forbidden-tuple encoding
Minimize
 obj: 0
Subject To
 c0_h0_0: x0_0 + x0_1 >= 1
 c1_h0_0: - x0_0 - x0_1 >= -1
 c2_h0_1: x0_1 + x0_2 >= 1
 c3_h0_1: - x0_1 - x0_2 >= -1
 c4_h0_2: x0_2 + x0_3 >= 1
 c5_h0_2: - x0_2 - x0_3 >= -1
 c6_h0_3: x0_3 + x0_4 >= 1
 c7_h0_3: - x0_3 - x0_4 >= -1
 c8_h0_4: x0_4 + x0_5 >= 1
 c9_h0_4: - x0_4 - x0_5 >= -1
 c10_h0_5: x0_5 + x0_6 >= 1
 c11_h0_5: - x0_5 - x0_6 >= -1
 c12_h0_6: x0_6 + x0_7 >= 1
 c13_h0_6: - x0_6 - x0_7 >= -1
 c14_h0_7: x0_7 + x0_8 >= 1
 c15_h0_7: - x0_7 - x0_8 >= -1
 c16_h0_8: x0_8 + x0_9 >= 1
 c17_h0_8: - x0_8 - x0_9 >= -1
 c18_h0_9: x0_9 + x0_10 >= 1
 c19_h0_9: - x0_9 - x0_10 >= -1
 c20_h0_10: x0_10 + x0_11 >= 1
 c21_h0_10: - x0_10 - x0_11 >= -1
 c22_h0_11: x0_11 + x0_12 >= 1
 c23_h0_11: - x0_11 - x0_12 >= -1
 c24_h0_12: x0_12 + x0_13 >= 1
 c25_h0_12: - x0_12 - x0_13 >= -1
 c26_h0_13: x0_13 + x0_14 >= 1
 c27_h0_13: - x0_13 - x0_14 >= -1
 c28_h0_14: x0_14 + x0_15 >= 1
 c29_h0_14: - x0_14 - x0_15 >= -1
 c30_h0_15: x0_15 + x0_16 >= 1
 c31_h0_15: - x0_15 - x0_16 >= -1
 c32_h0_16: x0_16 + x0_17 >= 1
 c33_h0_16: - x0_16 - x0_17 >= -1
 c34_h0_17: x0_17 + x0_18 >= 1
 c35_h0_17: - x0_17 - x0_18 >= -1
 c36_h0_18: x0_18 + x0_19 >= 1
 c37_h0_18: - x0_18 - x0_19 >= -1
 c38_h0_19: x0_19 + x0_20 >= 1
 c39_h0_19: - x0_19 - x0_20 >= -1
 c40_h0_20: x0_20 + x0_21 >= 1
 c41_h0_20: - x0_20 - x0_21 >= -1
 c42_h0_21: x0_21 + x0_22 >= 1
 c43_h0_21: - x0_21 - x0_22 >= -1
 c44_h0_22: x0_22 + x0_23 >= 1
 c45_h0_22: - x0_22 - x0_23 >= -1
 c46_h0_23: x0_23 + x0_24 >= 1
 c47_h0_23: - x0_23 - x0_24 >= -1
 c48_h0_24: x0_24 + x0_25 >= 1
 c49_h0_24: - x0_24 - x0_25 >= -1
 c50_h0_25: x0_25 + x0_26 >= 1
 c51_h0_25: - x0_25 - x0_26 >= -1
 c52_h0_26: x0_26 + x0_27 >= 1
 c53_h0_26: - x0_26 - x0_27 >= -1
 c54_h0_27: x0_27 + x0_28 >= 1
 c55_h0_27: - x0_27 - x0_28 >= -1
 c56_h0_28: x0_28 + x0_29 >= 1
 c57_h0_28: - x0_28 - x0_29 >= -1
 c58_h0_29: x0_29 + x0_30 >= 1
 c59_h0_29: - x0_29 - x0_30 >= -1
 c60_h0_30: x0_30 + x0_31 >= 1
 c61_h0_30: - x0_30 - x0_31 >= -1
 c62_h0_31: x0_31 + x0_32 >= 1
 c63_h0_31: - x0_31 - x0_32 >= -1
 c64_h0_32: x0_32 + x0_33 >= 1
 c65_h0_32: - x0_32 - x0_33 >= -1
 c66_h0_33: x0_33 + x0_34 >= 1
 c67_h0_33: - x0_33 - x0_34 >= -1
 c68_h0_34: x0_34 + x0_35 >= 1
 c69_h0_34: - x0_34 - x0_35 >= -1
 c70_h0_35: x0_35 + x0_36 >= 1
 c71_h0_35: - x0_35 - x0_36 >= -1
 c72_h0_36: x0_36 + x0_37 >= 1
 c73_h0_36: - x0_36 - x0_37 >= -1
 c74_h0_37: x0_37 + x0_38 >= 1
 c75_h0_37: - x0_37 - x0_38 >= -1
 c76_h0_38: x0_38 + x0_39 >= 1
 c77_h0_38: - x0_38 - x0_39 >= -1
 c78_h0_39: x0_39 + x0_40 >= 1
 c79_h0_39: - x0_39 - x0_40 >= -1
 c80_h0_40: x0_40 + x0_41 >= 1
 c81_h0_40: - x0_40 - x0_41 >= -1
 c82_h0_41: x0_41 + x0_42 >= 1
 c83_h0_41: - x0_41 - x0_42 >= -1
 c84_h0_42: x0_42 + x0_43 >= 1
 c85_h0_42: - x0_42 - x0_43 >= -1
 c86_h0_43: x0_43 + x0_44 >= 1
 c87_h0_43: - x0_43 - x0_44 >= -1
 c88_h0_44: x0_44 + x0_45 >= 1
 c89_h0_44: - x0_44 - x0_45 >= -1
 c90_h0_45: x0_45 + x0_46 >= 1
 c91_h0_45: - x0_45 - x0_46 >= -1
 c92_h0_46: x0_46 + x0_47 >= 1
 c93_h0_46: - x0_46 - x0_47 >= -1
 c94_h0_47: x0_47 + x0_48 >= 1
 c95_h0_47: - x0_47 - x0_48 >= -1
 c96_h0_48: x0_48 + x0_49 >= 1
 c97_h0_48: - x0_48 - x0_49 >= -1
 c98_h0_49: x0_49 + x0_50 >= 1
 c99_h0_49: - x0_49 - x0_50 >= -1
 c100_h0_50: x0_50 + x0_51 >= 1
 c101_h0_50: - x0_50 - x0_51 >= -1
 c102_h0_51: x0_51 + x0_52 >= 1
 c103_h0_51: - x0_51 - x0_52 >= -1
 c104_h0_52: x0_52 + x0_53 >= 1
 c105_h0_52: - x0_52 - x0_53 >= -1
 c106_h0_53: x0_53 + x0_54 >= 1
 c107_h0_53: - x0_53 - x0_54 >= -1
 c108_h0_54: x0_54 + x0_55 >= 1
 c109_h0_54: - x0_54 - x0_55 >= -1
 c110_h0_55: x0_55 + x0_56 >= 1
 c111_h0_55: - x0_55 - x0_56 >= -1
 c112_h0_56: x0_56 + x0_57 >= 1
 c113_h0_56: - x0_56 - x0_57 >= -1
 c114_h0_57: x0_57 + x0_58 >= 1
 c115_h0_57: - x0_57 - x0_58 >= -1
 c116_h0_58: x0_58 + x0_59 >= 1
 c117_h0_58: - x0_58 - x0_59 >= -1
 c118_h0_59: x0_59 + x0_60 >= 1
 c119_h0_59: - x0_59 - x0_60 >= -1
 c120_h0_60: x0_60 + x0_61 >= 1
 c121_h0_60: - x0_60 - x0_61 >= -1
 c122_h0_61: x0_61 + x0_62 >= 1
 c123_h0_61: - x0_61 - x0_62 >= -1
 c124_h0_62: x0_62 + x0_63 >= 1
 c125_h0_62: - x0_62 - x0_63 >= -1
 c126_h0_63: x0_63 + x0_64 >= 1
 c127_h0_63: - x0_63 - x0_64 >= -1
 c128_h0_64: x0_64 + x0_65 >= 1
 c129_h0_64: - x0_64 - x0_65 >= -1
 c130_h0_65: x0_65 + x0_66 >= 1
 c131_h0_65: - x0_65 - x0_66 >= -1
 c132_h0_66: x0_66 + x0_67 >= 1
 c133_h0_66: - x0_66 - x0_67 >= -1
 c134_h0_67: x0_67 + x0_68 >= 1
 c135_h0_67: - x0_67 - x0_68 >= -1
 c136_h0_68: x0_68 + x0_69 >= 1
 c137_h0_68: - x0_68 - x0_69 >= -1
 c138_h0_69: x0_69 + x0_70 >= 1
 c139_h0_69: - x0_69 - x0_70 >= -1
 c140_h0_70: x0_70 + x0_71 >= 1
 c141_h0_70: - x0_70 - x0_71 >= -1
 c142_h0_71: x0_71 + x0_72 >= 1
 c143_h0_71: - x0_71 - x0_72 >= -1
 c144_h0_72: x0_72 + x0_73 >= 1
 c145_h0_72: - x0_72 - x0_73 >= -1
 c146_h0_73: x0_73 + x0_74 >= 1
 c147_h0_73: - x0_73 - x0_74 >= -1
 c148_h0_74: x0_74 + x0_75 >= 1
 c149_h0_74: - x0_74 - x0_75 >= -1
 c150_h0_75: x0_75 + x0_76 >= 1
 c151_h0_75: - x0_75 - x0_76 >= -1
 c152_h0_76: x0_76 + x0_77 >= 1
 c153_h0_76: - x0_76 - x0_77 >= -1
 c154_h0_77: x0_77 + x0_78 >= 1
 c155_h0_77: - x0_77 - x0_78 >= -1
 c156_h0_78: x0_78 + x0_79 >= 1
 c157_h0_78: - x0_78 - x0_79 >= -1
 c158_h0_79: x0_79 + x0_80 >= 1
 c159_h0_79: - x0_79 - x0_80 >= -1
 c160_h0_80: x0_80 + x0_81 >= 1
 c161_h0_80: - x0_80 - x0_81 >= -1
 c162_h0_81: x0_81 + x0_82 >= 1
 c163_h0_81: - x0_81 - x0_82 >= -1
 c164_h0_82: x0_82 + x0_83 >= 1
 c165_h0_82: - x0_82 - x0_83 >= -1
 c166_h0_83: x0_83 + x0_84 >= 1
 c167_h0_83: - x0_83 - x0_84 >= -1
 c168_h0_84: x0_84 + x0_85 >= 1
 c169_h0_84: - x0_84 - x0_85 >= -1
 c170_h0_85: x0_85 + x0_86 >= 1
 c171_h0_85: - x0_85 - x0_86 >= -1
 c172_h0_86: x0_86 + x0_87 >= 1
 c173_h0_86: - x0_86 - x0_87 >= -1
 c174_h0_87: x0_87 + x0_88 >= 1
 c175_h0_87: - x0_87 - x0_88 >= -1
 c176_h0_88: x0_88 + x0_89 >= 1
 c177_h0_88: - x0_88 - x0_89 >= -1
 c178_h0_89: x0_89 + x0_90 >= 1
 c179_h0_89: - x0_89 - x0_90 >= -1
 c180_h0_90: x0_90 + x0_91 >= 1
 c181_h0_90: - x0_90 - x0_91 >= -1
 c182_h0_91: x0_91 + x0_92 >= 1
 c183_h0_91: - x0_91 - x0_92 >= -1
 c184_h0_92: x0_92 + x0_93 >= 1
 c185_h0_92: - x0_92 - x0_93 >= -1
 c186_h0_93: x0_93 + x0_94 >= 1
 c187_h0_93: - x0_93 - x0_94 >= -1
 c188_h0_94: x0_94 + x0_95 >= 1
 c189_h0_94: - x0_94 - x0_95 >= -1
 c190_h0_95: x0_95 + x0_96 >= 1
 c191_h0_95: - x0_95 - x0_96 >= -1
 c192_h0_96: x0_96 + x0_97 >= 1
 c193_h0_96: - x0_96 - x0_97 >= -1
 c194_h0_97: x0_97 + x0_98 >= 1
 c195_h0_97: - x0_97 - x0_98 >= -1
 c196_h0_98: x0_98 + x0_99 >= 1
 c197_h0_98: - x0_98 - x0_99 >= -1
 c198_h0_99: x0_99 + x0_100 >= 1
 c199_h0_99: - x0_99 - x0_100 >= -1
 c200_h0_100: x0_100 + x0_101 >= 1
 c201_h0_100: - x0_100 - x0_101 >= -1
 c202_h0_101: x0_101 + x0_102 >= 1
 c203_h0_101: - x0_101 - x0_102 >= -1
 c204_h0_102: x0_102 + x0_103 >= 1
 c205_h0_102: - x0_102 - x0_103 >= -1
 c206_h0_103: x0_103 + x0_104 >= 1
 c207_h0_103: - x0_103 - x0_104 >= -1
 c208_h0_104: x0_104 + x0_105 >= 1
 c209_h0_104: - x0_104 - x0_105 >= -1
 c210_h0_105: x0_105 + x0_106 >= 1
 c211_h0_105: - x0_105 - x0_106 >= -1
 c212_h0_106: x0_106 + x0_107 >= 1
 c213_h0_106: - x0_106 - x0_107 >= -1
 c214_h0_107: x0_107 + x0_108 >= 1
 c215_h0_107: - x0_107 - x0_108 >= -1
 c216_h0_108: x0_108 + x0_109 >= 1
 c217_h0_108: - x0_108 - x0_109 >= -1
 c218_h0_109: x0_109 + x0_110 >= 1
 c219_h0_109: - x0_109 - x0_110 >= -1
 c220_h0_110: x0_110 + x0_111 >= 1
 c221_h0_110: - x0_110 - x0_111 >= -1
 c222_h0_111: x0_111 + x0_112 >= 1
 c223_h0_111: - x0_111 - x0_112 >= -1
 c224_h0_112: x0_112 + x0_113 >= 1
 c225_h0_112: - x0_112 - x0_113 >= -1
 c226_h0_113: x0_113 + x0_114 >= 1
 c227_h0_113: - x0_113 - x0_114 >= -1
 c228_h0_114: x0_114 + x0_115 >= 1
 c229_h0_114: - x0_114 - x0_115 >= -1
 c230_h0_115: x0_115 + x0_116 >= 1
 c231_h0_115: - x0_115 - x0_116 >= -1
 c232_h0_116: x0_116 + x0_117 >= 1
 c233_h0_116: - x0_116 - x0_117 >= -1
 c234_h0_117: x0_117 + x0_118 >= 1
 c235_h0_117: - x0_117 - x0_118 >= -1
 c236_h0_118: x0_118 + x0_119 >= 1
 c237_h0_118: - x0_118 - x0_119 >= -1
 c238_h0_119: x0_119 + x0_120 >= 1
 c239_h0_119: - x0_119 - x0_120 >= -1
 c240_h0_120: x0_120 + x0_121 >= 1
 c241_h0_120: - x0_120 - x0_121 >= -1
 c242_h0_121: x0_121 + x0_122 >= 1
 c243_h0_121: - x0_121 - x0_122 >= -1
 c244_h0_122: x0_122 + x0_123 >= 1
 c245_h0_122: - x0_122 - x0_123 >= -1
 c246_h0_123: x0_123 + x0_124 >= 1
 c247_h0_123: - x0_123 - x0_124 >= -1
 c248_h0_124: x0_124 + x0_125 >= 1
 c249_h0_124: - x0_124 - x0_125 >= -1
 c250_h0_125: x0_125 + x0_126 >= 1
 c251_h0_125: - x0_125 - x0_126 >= -1
 c252_h0_126: x0_126 + x0_127 >= 1
 c253_h0_126: - x0_126 - x0_127 >= -1
 c254_h0_127: x0_127 + x0_128 >= 1
 c255_h0_127: - x0_127 - x0_128 >= -1
 c256_h0_128: x0_128 + x0_129 >= 1
 c257_h0_128: - x0_128 - x0_129 >= -1
 c258_h0_129: x0_129 + x0_130 >= 1
 c259_h0_129: - x0_129 - x0_130 >= -1
 c260_h0_130: x0_130 + x0_131 >= 1
 c261_h0_130: - x0_130 - x0_131 >= -1
 c262_h0_131: x0_131 + x0_132 >= 1
 c263_h0_131: - x0_131 - x0_132 >= -1
 c264_h0_132: x0_132 + x0_133 >= 1
 c265_h0_132: - x0_132 - x0_133 >= -1
 c266_h0_133: x0_133 + x0_134 >= 1
 c267_h0_133: - x0_133 - x0_134 >= -1
 c268_h0_134: x0_134 + x0_135 >= 1
 c269_h0_134: - x0_134 - x0_135 >= -1
 c270_h0_135: x0_135 + x0_136 >= 1
 c271_h0_135: - x0_135 - x0_136 >= -1
 c272_h0_136: x0_136 + x0_137 >= 1
 c273_h0_136: - x0_136 - x0_137 >= -1
 c274_h0_137: x0_137 + x0_138 >= 1
 c275_h0_137: - x0_137 - x0_138 >= -1
 c276_h0_138: x0_138 + x0_139 >= 1
 c277_h0_138: - x0_138 - x0_139 >= -1
 c278_h0_139: x0_139 + x0_140 >= 1
 c279_h0_139: - x0_139 - x0_140 >= -1
 c280_h0_140: x0_140 + x0_141 >= 1
 c281_h0_140: - x0_140 - x0_141 >= -1
 c282_h0_141: x0_141 + x0_142 >= 1
 c283_h0_141: - x0_141 - x0_142 >= -1
 c284_h0_142: x0_142 + x0_143 >= 1
 c285_h0_142: - x0_142 - x0_143 >= -1
 c286_h0_143: x0_143 + x0_144 >= 1
 c287_h0_143: - x0_143 - x0_144 >= -1
 c288_h0_144: x0_144 + x0_145 >= 1
 c289_h0_144: - x0_144 - x0_145 >= -1
 c290_h0_145: x0_145 + x0_146 >= 1
 c291_h0_145: - x0_145 - x0_146 >= -1
 c292_h0_146: x0_146 + x0_147 >= 1
 c293_h0_146: - x0_146 - x0_147 >= -1
 c294_h0_147: x0_147 + x0_148 >= 1
 c295_h0_147: - x0_147 - x0_148 >= -1
 c296_h0_148: x0_148 + x0_149 >= 1
 c297_h0_148: - x0_148 - x0_149 >= -1
 c298_h0_149: x0_149 + x0_150 >= 1
 c299_h0_149: - x0_149 - x0_150 >= -1
 c300_h0_150: x0_150 + x0_151 >= 1
 c301_h0_150: - x0_150 - x0_151 >= -1
 c302_h0_151: x0_151 + x0_152 >= 1
 c303_h0_151: - x0_151 - x0_152 >= -1
 c304_h0_152: x0_152 + x0_153 >= 1
 c305_h0_152: - x0_152 - x0_153 >= -1
 c306_h0_153: x0_153 + x0_154 >= 1
 c307_h0_153: - x0_153 - x0_154 >= -1
 c308_h0_154: x0_154 + x0_155 >= 1
 c309_h0_154: - x0_154 - x0_155 >= -1
 c310_h0_155: x0_155 + x0_156 >= 1
 c311_h0_155: - x0_155 - x0_156 >= -1
 c312_h0_156: x0_156 + x0_157 >= 1
 c313_h0_156: - x0_156 - x0_157 >= -1
 c314_h0_157: x0_157 + x0_158 >= 1
 c315_h0_157: - x0_157 - x0_158 >= -1
 c316_h0_158: x0_158 + x0_159 >= 1
 c317_h0_158: - x0_158 - x0_159 >= -1
 c318_h0_159: x0_159 + x0_160 >= 1
 c319_h0_159: - x0_159 - x0_160 >= -1
 c320_h0_160: x0_160 + x0_161 >= 1
 c321_h0_160: - x0_160 - x0_161 >= -1
 c322_h0_161: x0_161 + x0_162 >= 1
 c323_h0_161: - x0_161 - x0_162 >= -1
 c324_h0_162: x0_162 + x0_163 >= 1
 c325_h0_162: - x0_162 - x0_163 >= -1
 c326_h0_163: x0_163 + x0_164 >= 1
 c327_h0_163: - x0_163 - x0_164 >= -1
 c328_h0_164: x0_164 + x0_165 >= 1
 c329_h0_164: - x0_164 - x0_165 >= -1
 c330_h0_165: x0_165 + x0_166 >= 1
 c331_h0_165: - x0_165 - x0_166 >= -1
 c332_h0_166: x0_166 + x0_167 >= 1
 c333_h0_166: - x0_166 - x0_167 >= -1
 c334_h0_167: x0_167 + x0_168 >= 1
 c335_h0_167: - x0_167 - x0_168 >= -1
 c336_h0_168: x0_168 + x0_169 >= 1
 c337_h0_168: - x0_168 - x0_169 >= -1
 c338_h0_169: x0_169 + x0_170 >= 1
 c339_h0_169: - x0_169 - x0_170 >= -1
 c340_h0_170: x0_170 + x0_171 >= 1
 c341_h0_170: - x0_170 - x0_171 >= -1
 c342_h0_171: x0_171 + x0_172 >= 1
 c343_h0_171: - x0_171 - x0_172 >= -1
 c344_h0_172: x0_172 + x0_173 >= 1
 c345_h0_172: - x0_172 - x0_173 >= -1
 c346_h0_173: x0_173 + x0_174 >= 1
 c347_h0_173: - x0_173 - x0_174 >= -1
 c348_h0_174: x0_174 + x0_175 >= 1
 c349_h0_174: - x0_174 - x0_175 >= -1
 c350_h0_175: x0_175 + x0_176 >= 1
 c351_h0_175: - x0_175 - x0_176 >= -1
 c352_h0_176: x0_176 + x0_177 >= 1
 c353_h0_176: - x0_176 - x0_177 >= -1
 c354_h0_177: x0_177 + x0_178 >= 1
 c355_h0_177: - x0_177 - x0_178 >= -1
 c356_h0_178: x0_178 + x0_179 >= 1
 c357_h0_178: - x0_178 - x0_179 >= -1
 c358_h0_179: x0_179 + x0_180 >= 1
 c359_h0_179: - x0_179 - x0_180 >= -1
 c360_h0_180: x0_180 + x0_181 >= 1
 c361_h0_180: - x0_180 - x0_181 >= -1
 c362_h0_181: x0_181 + x0_182 >= 1
 c363_h0_181: - x0_181 - x0_182 >= -1
 c364_h0_182: x0_182 + x0_183 >= 1
 c365_h0_182: - x0_182 - x0_183 >= -1
 c366_h0_183: x0_183 + x0_184 >= 1
 c367_h0_183: - x0_183 - x0_184 >= -1
 c368_h0_184: x0_184 + x0_185 >= 1
 c369_h0_184: - x0_184 - x0_185 >= -1
 c370_h0_185: x0_185 + x0_186 >= 1
 c371_h0_185: - x0_185 - x0_186 >= -1
 c372_h0_186: x0_186 + x0_187 >= 1
 c373_h0_186: - x0_186 - x0_187 >= -1
 c374_h0_187: x0_187 + x0_188 >= 1
 c375_h0_187: - x0_187 - x0_188 >= -1
 c376_h0_188: x0_188 + x0_189 >= 1
 c377_h0_188: - x0_188 - x0_189 >= -1
 c378_h0_189: x0_189 + x0_190 >= 1
 c379_h0_189: - x0_189 - x0_190 >= -1
 c380_h0_190: x0_190 + x0_191 >= 1
 c381_h0_190: - x0_190 - x0_191 >= -1
 c382_h0_191: x0_191 + x0_192 >= 1
 c383_h0_191: - x0_191 - x0_192 >= -1
 c384_h0_192: x0_192 + x0_193 >= 1
 c385_h0_192: - x0_192 - x0_193 >= -1
 c386_h0_193: x0_193 + x0_194 >= 1
 c387_h0_193: - x0_193 - x0_194 >= -1
 c388_h0_194: x0_194 + x0_195 >= 1
 c389_h0_194: - x0_194 - x0_195 >= -1
 c390_h0_195: x0_195 + x0_196 >= 1
 c391_h0_195: - x0_195 - x0_196 >= -1
 c392_h0_196: x0_196 + x0_197 >= 1
 c393_h0_196: - x0_196 - x0_197 >= -1
 c394_h0_197: x0_197 + x0_198 >= 1
 c395_h0_197: - x0_197 - x0_198 >= -1
 c396_h0_198: x0_198 + x0_199 >= 1
 c397_h0_198: - x0_198 - x0_199 >= -1
 c398_h0_199: x0_199 + x0_200 >= 1
 c399_h0_199: - x0_199 - x0_200 >= -1
 c400_h0_200: x0_200 + x0_201 >= 1
 c401_h0_200: - x0_200 - x0_201 >= -1
 c402_h0_201: x0_201 + x0_202 >= 1
 c403_h0_201: - x0_201 - x0_202 >= -1
 c404_h0_202: x0_202 + x0_203 >= 1
 c405_h0_202: - x0_202 - x0_203 >= -1
 c406_h0_203: x0_203 + x0_204 >= 1
 c407_h0_203: - x0_203 - x0_204 >= -1
 c408_h0_204: x0_204 + x0_205 >= 1
 c409_h0_204: - x0_204 - x0_205 >= -1
 c410_h0_205: x0_205 + x0_206 >= 1
 c411_h0_205: - x0_205 - x0_206 >= -1
 c412_h0_206: x0_206 + x0_207 >= 1
 c413_h0_206: - x0_206 - x0_207 >= -1
 c414_h0_207: x0_207 + x0_208 >= 1
 c415_h0_207: - x0_207 - x0_208 >= -1
 c416_h0_208: x0_208 + x0_209 >= 1
 c417_h0_208: - x0_208 - x0_209 >= -1
 c418_h0_209: x0_209 + x0_210 >= 1
 c419_h0_209: - x0_209 - x0_210 >= -1
 c420_h0_210: x0_210 + x0_211 >= 1
 c421_h0_210: - x0_210 - x0_211 >= -1
 c422_h0_211: x0_211 + x0_212 >= 1
 c423_h0_211: - x0_211 - x0_212 >= -1
 c424_h0_212: x0_212 + x0_213 >= 1
 c425_h0_212: - x0_212 - x0_213 >= -1
 c426_h0_213: x0_213 + x0_214 >= 1
 c427_h0_213: - x0_213 - x0_214 >= -1
 c428_h0_214: x0_214 + x0_215 >= 1
 c429_h0_214: - x0_214 - x0_215 >= -1
 c430_h0_215: x0_215 + x0_216 >= 1
 c431_h0_215: - x0_215 - x0_216 >= -1
 c432_h0_216: x0_216 + x0_217 >= 1
 c433_h0_216: - x0_216 - x0_217 >= -1
 c434_h0_217: x0_217 + x0_218 >= 1
 c435_h0_217: - x0_217 - x0_218 >= -1
 c436_h0_218: x0_218 + x0_219 >= 1
 c437_h0_218: - x0_218 - x0_219 >= -1
 c438_h0_219: x0_219 + x0_220 >= 1
 c439_h0_219: - x0_219 - x0_220 >= -1
 c440_h0_220: x0_220 + x0_221 >= 1
 c441_h0_220: - x0_220 - x0_221 >= -1
 c442_h0_221: x0_221 + x0_222 >= 1
 c443_h0_221: - x0_221 - x0_222 >= -1
 c444_h0_222: x0_222 + x0_223 >= 1
 c445_h0_222: - x0_222 - x0_223 >= -1
 c446_h0_223: x0_223 + x0_224 >= 1
 c447_h0_223: - x0_223 - x0_224 >= -1
 c448_h0_224: x0_224 + x0_225 >= 1
 c449_h0_224: - x0_224 - x0_225 >= -1
 c450_h0_225: x0_225 + x0_226 >= 1
 c451_h0_225: - x0_225 - x0_226 >= -1
 c452_h0_226: x0_226 + x0_227 >= 1
 c453_h0_226: - x0_226 - x0_227 >= -1
 c454_h0_227: x0_227 + x0_228 >= 1
 c455_h0_227: - x0_227 - x0_228 >= -1
 c456_h0_228: x0_228 + x0_229 >= 1
 c457_h0_228: - x0_228 - x0_229 >= -1
 c458_h0_229: x0_229 + x0_230 >= 1
 c459_h0_229: - x0_229 - x0_230 >= -1
 c460_h0_230: x0_230 + x0_231 >= 1
 c461_h0_230: - x0_230 - x0_231 >= -1
 c462_h0_231: x0_231 + x0_232 >= 1
 c463_h0_231: - x0_231 - x0_232 >= -1
 c464_h0_232: x0_232 + x0_233 >= 1
 c465_h0_232: - x0_232 - x0_233 >= -1
 c466_h0_233: x0_233 + x0_234 >= 1
 c467_h0_233: - x0_233 - x0_234 >= -1
 c468_h0_234: x0_234 + x0_235 >= 1
 c469_h0_234: - x0_234 - x0_235 >= -1
 c470_h0_235: x0_235 + x0_236 >= 1
 c471_h0_235: - x0_235 - x0_236 >= -1
 c472_h0_236: x0_236 + x0_237 >= 1
 c473_h0_236: - x0_236 - x0_237 >= -1
 c474_h0_237: x0_237 + x0_238 >= 1
 c475_h0_237: - x0_237 - x0_238 >= -1
 c476_h0_238: x0_238 + x0_239 >= 1
 c477_h0_238: - x0_238 - x0_239 >= -1
 c478_h0_239: x0_239 + x0_240 >= 1
 c479_h0_239: - x0_239 - x0_240 >= -1
 c480_h0_240: x0_240 + x0_241 >= 1
 c481_h0_240: - x0_240 - x0_241 >= -1
 c482_h0_241: x0_241 + x0_242 >= 1
 c483_h0_241: - x0_241 - x0_242 >= -1
 c484_h0_242: x0_242 + x0_243 >= 1
 c485_h0_242: - x0_242 - x0_243 >= -1
 c486_h0_243: x0_243 + x0_244 >= 1
 c487_h0_243: - x0_243 - x0_244 >= -1
 c488_h0_244: x0_244 + x0_245 >= 1
 c489_h0_244: - x0_244 - x0_245 >= -1
 c490_h0_245: x0_245 + x0_246 >= 1
 c491_h0_245: - x0_245 - x0_246 >= -1
 c492_h0_246: x0_246 + x0_247 >= 1
 c493_h0_246: - x0_246 - x0_247 >= -1
 c494_h0_247: x0_247 + x0_248 >= 1
 c495_h0_247: - x0_247 - x0_248 >= -1
 c496_h0_248: x0_248 + x0_249 >= 1
 c497_h0_248: - x0_248 - x0_249 >= -1
 c498_h0_249: x0_249 + x0_250 >= 1
 c499_h0_249: - x0_249 - x0_250 >= -1
 c500_h0_250: x0_250 + x0_251 >= 1
 c501_h0_250: - x0_250 - x0_251 >= -1
 c502_h0_251: x0_251 + x0_252 >= 1
 c503_h0_251: - x0_251 - x0_252 >= -1
 c504_h0_252: x0_252 + x0_253 >= 1
 c505_h0_252: - x0_252 - x0_253 >= -1
 c506_h0_253: x0_253 + x0_254 >= 1
 c507_h0_253: - x0_253 - x0_254 >= -1
 c508_h0_254: x0_254 + x0_255 >= 1
 c509_h0_254: - x0_254 - x0_255 >= -1
 c510_h1_0: x1_0 + x1_1 >= 1
 c511_h1_0: - x1_0 - x1_1 >= -1
 c512_h1_1: x1_1 + x1_2 >= 1
 c513_h1_1: - x1_1 - x1_2 >= -1
 c514_h1_2: x1_2 + x1_3 >= 1
 c515_h1_2: - x1_2 - x1_3 >= -1
 c516_h1_3: x1_3 + x1_4 >= 1
 c517_h1_3: - x1_3 - x1_4 >= -1
 c518_h1_4: x1_4 + x1_5 >= 1
 c519_h1_4: - x1_4 - x1_5 >= -1
 c520_h1_5: x1_5 + x1_6 >= 1
 c521_h1_5: - x1_5 - x1_6 >= -1
 c522_h1_6: x1_6 + x1_7 >= 1
 c523_h1_6: - x1_6 - x1_7 >= -1
 c524_h1_7: x1_7 + x1_8 >= 1
 c525_h1_7: - x1_7 - x1_8 >= -1
 c526_h1_8: x1_8 + x1_9 >= 1
 c527_h1_8: - x1_8 - x1_9 >= -1
 c528_h1_9: x1_9 + x1_10 >= 1
 c529_h1_9: - x1_9 - x1_10 >= -1
 c530_h1_10: x1_10 + x1_11 >= 1
 c531_h1_10: - x1_10 - x1_11 >= -1
 c532_h1_11: x1_11 + x1_12 >= 1
 c533_h1_11: - x1_11 - x1_12 >= -1
 c534_h1_12: x1_12 + x1_13 >= 1
 c535_h1_12: - x1_12 - x1_13 >= -1
 c536_h1_13: x1_13 + x1_14 >= 1
 c537_h1_13: - x1_13 - x1_14 >= -1
 c538_h1_14: x1_14 + x1_15 >= 1
 c539_h1_14: - x1_14 - x1_15 >= -1
 c540_h1_15: x1_15 + x1_16 >= 1
 c541_h1_15: - x1_15 - x1_16 >= -1
 c542_h1_16: x1_16 + x1_17 >= 1
 c543_h1_16: - x1_16 - x1_17 >= -1
 c544_h1_17: x1_17 + x1_18 >= 1
 c545_h1_17: - x1_17 - x1_18 >= -1
 c546_h1_18: x1_18 + x1_19 >= 1
 c547_h1_18: - x1_18 - x1_19 >= -1
 c548_h1_19: x1_19 + x1_20 >= 1
 c549_h1_19: - x1_19 - x1_20 >= -1
 c550_h1_20: x1_20 + x1_21 >= 1
 c551_h1_20: - x1_20 - x1_21 >= -1
 c552_h1_21: x1_21 + x1_22 >= 1
 c553_h1_21: - x1_21 - x1_22 >= -1
 c554_h1_22: x1_22 + x1_23 >= 1
 c555_h1_22: - x1_22 - x1_23 >= -1
 c556_h1_23: x1_23 + x1_24 >= 1
 c557_h1_23: - x1_23 - x1_24 >= -1
 c558_h1_24: x1_24 + x1_25 >= 1
 c559_h1_24: - x1_24 - x1_25 >= -1
 c560_h1_25: x1_25 + x1_26 >= 1
 c561_h1_25: - x1_25 - x1_26 >= -1
 c562_h1_26: x1_26 + x1_27 >= 1
 c563_h1_26: - x1_26 - x1_27 >= -1
 c564_h1_27: x1_27 + x1_28 >= 1
 c565_h1_27: - x1_27 - x1_28 >= -1
 c566_h1_28: x1_28 + x1_29 >= 1
 c567_h1_28: - x1_28 - x1_29 >= -1
 c568_h1_29: x1_29 + x1_30 >= 1
 c569_h1_29: - x1_29 - x1_30 >= -1
 c570_h1_30: x1_30 + x1_31 >= 1
 c571_h1_30: - x1_30 - x1_31 >= -1
 c572_h1_31: x1_31 + x1_32 >= 1
 c573_h1_31: - x1_31 - x1_32 >= -1
 c574_h1_32: x1_32 + x1_33 >= 1
 c575_h1_32: - x1_32 - x1_33 >= -1
 c576_h1_33: x1_33 + x1_34 >= 1
 c577_h1_33: - x1_33 - x1_34 >= -1
 c578_h1_34: x1_34 + x1_35 >= 1
 c579_h1_34: - x1_34 - x1_35 >= -1
 c580_h1_35: x1_35 + x1_36 >= 1
 c581_h1_35: - x1_35 - x1_36 >= -1
 c582_h1_36: x1_36 + x1_37 >= 1
 c583_h1_36: - x1_36 - x1_37 >= -1
 c584_h1_37: x1_37 + x1_38 >= 1
 c585_h1_37: - x1_37 - x1_38 >= -1
 c586_h1_38: x1_38 + x1_39 >= 1
 c587_h1_38: - x1_38 - x1_39 >= -1
 c588_h1_39: x1_39 + x1_40 >= 1
 c589_h1_39: - x1_39 - x1_40 >= -1
 c590_h1_40: x1_40 + x1_41 >= 1
 c591_h1_40: - x1_40 - x1_41 >= -1
 c592_h1_41: x1_41 + x1_42 >= 1
 c593_h1_41: - x1_41 - x1_42 >= -1
 c594_h1_42: x1_42 + x1_43 >= 1
 c595_h1_42: - x1_42 - x1_43 >= -1
 c596_h1_43: x1_43 + x1_44 >= 1
 c597_h1_43: - x1_43 - x1_44 >= -1
 c598_h1_44: x1_44 + x1_45 >= 1
 c599_h1_44: - x1_44 - x1_45 >= -1
 c600_h1_45: x1_45 + x1_46 >= 1
 c601_h1_45: - x1_45 - x1_46 >= -1
 c602_h1_46: x1_46 + x1_47 >= 1
 c603_h1_46: - x1_46 - x1_47 >= -1
 c604_h1_47: x1_47 + x1_48 >= 1
 c605_h1_47: - x1_47 - x1_48 >= -1
 c606_h1_48: x1_48 + x1_49 >= 1
 c607_h1_48: - x1_48 - x1_49 >= -1
 c608_h1_49: x1_49 + x1_50 >= 1
 c609_h1_49: - x1_49 - x1_50 >= -1
 c610_h1_50: x1_50 + x1_51 >= 1
 c611_h1_50: - x1_50 - x1_51 >= -1
 c612_h1_51: x1_51 + x1_52 >= 1
 c613_h1_51: - x1_51 - x1_52 >= -1
 c614_h1_52: x1_52 + x1_53 >= 1
 c615_h1_52: - x1_52 - x1_53 >= -1
 c616_h1_53: x1_53 + x1_54 >= 1
 c617_h1_53: - x1_53 - x1_54 >= -1
 c618_h1_54: x1_54 + x1_55 >= 1
 c619_h1_54: - x1_54 - x1_55 >= -1
 c620_h1_55: x1_55 + x1_56 >= 1
 c621_h1_55: - x1_55 - x1_56 >= -1
 c622_h1_56: x1_56 + x1_57 >= 1
 c623_h1_56: - x1_56 - x1_57 >= -1
 c624_h1_57: x1_57 + x1_58 >= 1
 c625_h1_57: - x1_57 - x1_58 >= -1
 c626_h1_58: x1_58 + x1_59 >= 1
 c627_h1_58: - x1_58 - x1_59 >= -1
 c628_h1_59: x1_59 + x1_60 >= 1
 c629_h1_59: - x1_59 - x1_60 >= -1
 c630_h1_60: x1_60 + x1_61 >= 1
 c631_h1_60: - x1_60 - x1_61 >= -1
 c632_h1_61: x1_61 + x1_62 >= 1
 c633_h1_61: - x1_61 - x1_62 >= -1
 c634_h1_62: x1_62 + x1_63 >= 1
 c635_h1_62: - x1_62 - x1_63 >= -1
 c636_h1_63: x1_63 + x1_64 >= 1
 c637_h1_63: - x1_63 - x1_64 >= -1
 c638_h1_64: x1_64 + x1_65 >= 1
 c639_h1_64: - x1_64 - x1_65 >= -1
 c640_h1_65: x1_65 + x1_66 >= 1
 c641_h1_65: - x1_65 - x1_66 >= -1
 c642_h1_66: x1_66 + x1_67 >= 1
 c643_h1_66: - x1_66 - x1_67 >= -1
 c644_h1_67: x1_67 + x1_68 >= 1
 c645_h1_67: - x1_67 - x1_68 >= -1
 c646_h1_68: x1_68 + x1_69 >= 1
 c647_h1_68: - x1_68 - x1_69 >= -1
 c648_h1_69: x1_69 + x1_70 >= 1
 c649_h1_69: - x1_69 - x1_70 >= -1
 c650_h1_70: x1_70 + x1_71 >= 1
 c651_h1_70: - x1_70 - x1_71 >= -1
 c652_h1_71: x1_71 + x1_72 >= 1
 c653_h1_71: - x1_71 - x1_72 >= -1
 c654_h1_72: x1_72 + x1_73 >= 1
 c655_h1_72: - x1_72 - x1_73 >= -1
 c656_h1_73: x1_73 + x1_74 >= 1
 c657_h1_73: - x1_73 - x1_74 >= -1
 c658_h1_74: x1_74 + x1_75 >= 1
 c659_h1_74: - x1_74 - x1_75 >= -1
 c660_h1_75: x1_75 + x1_76 >= 1
 c661_h1_75: - x1_75 - x1_76 >= -1
 c662_h1_76: x1_76 + x1_77 >= 1
 c663_h1_76: - x1_76 - x1_77 >= -1
 c664_h1_77: x1_77 + x1_78 >= 1
 c665_h1_77: - x1_77 - x1_78 >= -1
 c666_h1_78: x1_78 + x1_79 >= 1
 c667_h1_78: - x1_78 - x1_79 >= -1
 c668_h1_79: x1_79 + x1_80 >= 1
 c669_h1_79: - x1_79 - x1_80 >= -1
 c670_h1_80: x1_80 + x1_81 >= 1
 c671_h1_80: - x1_80 - x1_81 >= -1
 c672_h1_81: x1_81 + x1_82 >= 1
 c673_h1_81: - x1_81 - x1_82 >= -1
 c674_h1_82: x1_82 + x1_83 >= 1
 c675_h1_82: - x1_82 - x1_83 >= -1
 c676_h1_83: x1_83 + x1_84 >= 1
 c677_h1_83: - x1_83 - x1_84 >= -1
 c678_h1_84: x1_84 + x1_85 >= 1
 c679_h1_84: - x1_84 - x1_85 >= -1
 c680_h1_85: x1_85 + x1_86 >= 1
 c681_h1_85: - x1_85 - x1_86 >= -1
 c682_h1_86: x1_86 + x1_87 >= 1
 c683_h1_86: - x1_86 - x1_87 >= -1
 c684_h1_87: x1_87 + x1_88 >= 1
 c685_h1_87: - x1_87 - x1_88 >= -1
 c686_h1_88: x1_88 + x1_89 >= 1
 c687_h1_88: - x1_88 - x1_89 >= -1
 c688_h1_89: x1_89 + x1_90 >= 1
 c689_h1_89: - x1_89 - x1_90 >= -1
 c690_h1_90: x1_90 + x1_91 >= 1
 c691_h1_90: - x1_90 - x1_91 >= -1
 c692_h1_91: x1_91 + x1_92 >= 1
 c693_h1_91: - x1_91 - x1_92 >= -1
 c694_h1_92: x1_92 + x1_93 >= 1
 c695_h1_92: - x1_92 - x1_93 >= -1
 c696_h1_93: x1_93 + x1_94 >= 1
 c697_h1_93: - x1_93 - x1_94 >= -1
 c698_h1_94: x1_94 + x1_95 >= 1
 c699_h1_94: - x1_94 - x1_95 >= -1
 c700_h1_95: x1_95 + x1_96 >= 1
 c701_h1_95: - x1_95 - x1_96 >= -1
 c702_h1_96: x1_96 + x1_97 >= 1
 c703_h1_96: - x1_96 - x1_97 >= -1
 c704_h1_97: x1_97 + x1_98 >= 1
 c705_h1_97: - x1_97 - x1_98 >= -1
 c706_h1_98: x1_98 + x1_99 >= 1
 c707_h1_98: - x1_98 - x1_99 >= -1
 c708_h1_99: x1_99 + x1_100 >= 1
 c709_h1_99: - x1_99 - x1_100 >= -1
 c710_h1_100: x1_100 + x1_101 >= 1
 c711_h1_100: - x1_100 - x1_101 >= -1
 c712_h1_101: x1_101 + x1_102 >= 1
 c713_h1_101: - x1_101 - x1_102 >= -1
 c714_h1_102: x1_102 + x1_103 >= 1
 c715_h1_102: - x1_102 - x1_103 >= -1
 c716_h1_103: x1_103 + x1_104 >= 1
 c717_h1_103: - x1_103 - x1_104 >= -1
 c718_h1_104: x1_104 + x1_105 >= 1
 c719_h1_104: - x1_104 - x1_105 >= -1
 c720_h1_105: x1_105 + x1_106 >= 1
 c721_h1_105: - x1_105 - x1_106 >= -1
 c722_h1_106: x1_106 + x1_107 >= 1
 c723_h1_106: - x1_106 - x1_107 >= -1
 c724_h1_107: x1_107 + x1_108 >= 1
 c725_h1_107: - x1_107 - x1_108 >= -1
 c726_h1_108: x1_108 + x1_109 >= 1
 c727_h1_108: - x1_108 - x1_109 >= -1
 c728_h1_109: x1_109 + x1_110 >= 1
 c729_h1_109: - x1_109 - x1_110 >= -1
 c730_h1_110: x1_110 + x1_111 >= 1
 c731_h1_110: - x1_110 - x1_111 >= -1
 c732_h1_111: x1_111 + x1_112 >= 1
 c733_h1_111: - x1_111 - x1_112 >= -1
 c734_h1_112: x1_112 + x1_113 >= 1
 c735_h1_112: - x1_112 - x1_113 >= -1
 c736_h1_113: x1_113 + x1_114 >= 1
 c737_h1_113: - x1_113 - x1_114 >= -1
 c738_h1_114: x1_114 + x1_115 >= 1
 c739_h1_114: - x1_114 - x1_115 >= -1
 c740_h1_115: x1_115 + x1_116 >= 1
 c741_h1_115: - x1_115 - x1_116 >= -1
 c742_h1_116: x1_116 + x1_117 >= 1
 c743_h1_116: - x1_116 - x1_117 >= -1
 c744_h1_117: x1_117 + x1_118 >= 1
 c745_h1_117: - x1_117 - x1_118 >= -1
 c746_h1_118: x1_118 + x1_119 >= 1
 c747_h1_118: - x1_118 - x1_119 >= -1
 c748_h1_119: x1_119 + x1_120 >= 1
 c749_h1_119: - x1_119 - x1_120 >= -1
 c750_h1_120: x1_120 + x1_121 >= 1
 c751_h1_120: - x1_120 - x1_121 >= -1
 c752_h1_121: x1_121 + x1_122 >= 1
 c753_h1_121: - x1_121 - x1_122 >= -1
 c754_h1_122: x1_122 + x1_123 >= 1
 c755_h1_122: - x1_122 - x1_123 >= -1
 c756_h1_123: x1_123 + x1_124 >= 1
 c757_h1_123: - x1_123 - x1_124 >= -1
 c758_h1_124: x1_124 + x1_125 >= 1
 c759_h1_124: - x1_124 - x1_125 >= -1
 c760_h1_125: x1_125 + x1_126 >= 1
 c761_h1_125: - x1_125 - x1_126 >= -1
 c762_h1_126: x1_126 + x1_127 >= 1
 c763_h1_126: - x1_126 - x1_127 >= -1
 c764_h1_127: x1_127 + x1_128 >= 1
 c765_h1_127: - x1_127 - x1_128 >= -1
 c766_h1_128: x1_128 + x1_129 >= 1
 c767_h1_128: - x1_128 - x1_129 >= -1
 c768_h1_129: x1_129 + x1_130 >= 1
 c769_h1_129: - x1_129 - x1_130 >= -1
 c770_h1_130: x1_130 + x1_131 >= 1
 c771_h1_130: - x1_130 - x1_131 >= -1
 c772_h1_131: x1_131 + x1_132 >= 1
 c773_h1_131: - x1_131 - x1_132 >= -1
 c774_h1_132: x1_132 + x1_133 >= 1
 c775_h1_132: - x1_132 - x1_133 >= -1
 c776_h1_133: x1_133 + x1_134 >= 1
 c777_h1_133: - x1_133 - x1_134 >= -1
 c778_h1_134: x1_134 + x1_135 >= 1
 c779_h1_134: - x1_134 - x1_135 >= -1
 c780_h1_135: x1_135 + x1_136 >= 1
 c781_h1_135: - x1_135 - x1_136 >= -1
 c782_h1_136: x1_136 + x1_137 >= 1
 c783_h1_136: - x1_136 - x1_137 >= -1
 c784_h1_137: x1_137 + x1_138 >= 1
 c785_h1_137: - x1_137 - x1_138 >= -1
 c786_h1_138: x1_138 + x1_139 >= 1
 c787_h1_138: - x1_138 - x1_139 >= -1
 c788_h1_139: x1_139 + x1_140 >= 1
 c789_h1_139: - x1_139 - x1_140 >= -1
 c790_h1_140: x1_140 + x1_141 >= 1
 c791_h1_140: - x1_140 - x1_141 >= -1
 c792_h1_141: x1_141 + x1_142 >= 1
 c793_h1_141: - x1_141 - x1_142 >= -1
 c794_h1_142: x1_142 + x1_143 >= 1
 c795_h1_142: - x1_142 - x1_143 >= -1
 c796_h1_143: x1_143 + x1_144 >= 1
 c797_h1_143: - x1_143 - x1_144 >= -1
 c798_h1_144: x1_144 + x1_145 >= 1
 c799_h1_144: - x1_144 - x1_145 >= -1
 c800_h1_145: x1_145 + x1_146 >= 1
 c801_h1_145: - x1_145 - x1_146 >= -1
 c802_h1_146: x1_146 + x1_147 >= 1
 c803_h1_146: - x1_146 - x1_147 >= -1
 c804_h1_147: x1_147 + x1_148 >= 1
 c805_h1_147: - x1_147 - x1_148 >= -1
 c806_h1_148: x1_148 + x1_149 >= 1
 c807_h1_148: - x1_148 - x1_149 >= -1
 c808_h1_149: x1_149 + x1_150 >= 1
 c809_h1_149: - x1_149 - x1_150 >= -1
 c810_h1_150: x1_150 + x1_151 >= 1
 c811_h1_150: - x1_150 - x1_151 >= -1
 c812_h1_151: x1_151 + x1_152 >= 1
 c813_h1_151: - x1_151 - x1_152 >= -1
 c814_h1_152: x1_152 + x1_153 >= 1
 c815_h1_152: - x1_152 - x1_153 >= -1
 c816_h1_153: x1_153 + x1_154 >= 1
 c817_h1_153: - x1_153 - x1_154 >= -1
 c818_h1_154: x1_154 + x1_155 >= 1
 c819_h1_154: - x1_154 - x1_155 >= -1
 c820_h1_155: x1_155 + x1_156 >= 1
 c821_h1_155: - x1_155 - x1_156 >= -1
 c822_h1_156: x1_156 + x1_157 >= 1
 c823_h1_156: - x1_156 - x1_157 >= -1
 c824_h1_157: x1_157 + x1_158 >= 1
 c825_h1_157: - x1_157 - x1_158 >= -1
 c826_h1_158: x1_158 + x1_159 >= 1
 c827_h1_158: - x1_158 - x1_159 >= -1
 c828_h1_159: x1_159 + x1_160 >= 1
 c829_h1_159: - x1_159 - x1_160 >= -1
 c830_h1_160: x1_160 + x1_161 >= 1
 c831_h1_160: - x1_160 - x1_161 >= -1
 c832_h1_161: x1_161 + x1_162 >= 1
 c833_h1_161: - x1_161 - x1_162 >= -1
 c834_h1_162: x1_162 + x1_163 >= 1
 c835_h1_162: - x1_162 - x1_163 >= -1
 c836_h1_163: x1_163 + x1_164 >= 1
 c837_h1_163: - x1_163 - x1_164 >= -1
 c838_h1_164: x1_164 + x1_165 >= 1
 c839_h1_164: - x1_164 - x1_165 >= -1
 c840_h1_165: x1_165 + x1_166 >= 1
 c841_h1_165: - x1_165 - x1_166 >= -1
 c842_h1_166: x1_166 + x1_167 >= 1
 c843_h1_166: - x1_166 - x1_167 >= -1
 c844_h1_167: x1_167 + x1_168 >= 1
 c845_h1_167: - x1_167 - x1_168 >= -1
 c846_h1_168: x1_168 + x1_169 >= 1
 c847_h1_168: - x1_168 - x1_169 >= -1
 c848_h1_169: x1_169 + x1_170 >= 1
 c849_h1_169: - x1_169 - x1_170 >= -1
 c850_h1_170: x1_170 + x1_171 >= 1
 c851_h1_170: - x1_170 - x1_171 >= -1
 c852_h1_171: x1_171 + x1_172 >= 1
 c853_h1_171: - x1_171 - x1_172 >= -1
 c854_h1_172: x1_172 + x1_173 >= 1
 c855_h1_172: - x1_172 - x1_173 >= -1
 c856_h1_173: x1_173 + x1_174 >= 1
 c857_h1_173: - x1_173 - x1_174 >= -1
 c858_h1_174: x1_174 + x1_175 >= 1
 c859_h1_174: - x1_174 - x1_175 >= -1
 c860_h1_175: x1_175 + x1_176 >= 1
 c861_h1_175: - x1_175 - x1_176 >= -1
 c862_h1_176: x1_176 + x1_177 >= 1
 c863_h1_176: - x1_176 - x1_177 >= -1
 c864_h1_177: x1_177 + x1_178 >= 1
 c865_h1_177: - x1_177 - x1_178 >= -1
 c866_h1_178: x1_178 + x1_179 >= 1
 c867_h1_178: - x1_178 - x1_179 >= -1
 c868_h1_179: x1_179 + x1_180 >= 1
 c869_h1_179: - x1_179 - x1_180 >= -1
 c870_h1_180: x1_180 + x1_181 >= 1
 c871_h1_180: - x1_180 - x1_181 >= -1
 c872_h1_181: x1_181 + x1_182 >= 1
 c873_h1_181: - x1_181 - x1_182 >= -1
 c874_h1_182: x1_182 + x1_183 >= 1
 c875_h1_182: - x1_182 - x1_183 >= -1
 c876_h1_183: x1_183 + x1_184 >= 1
 c877_h1_183: - x1_183 - x1_184 >= -1
 c878_h1_184: x1_184 + x1_185 >= 1
 c879_h1_184: - x1_184 - x1_185 >= -1
 c880_h1_185: x1_185 + x1_186 >= 1
 c881_h1_185: - x1_185 - x1_186 >= -1
 c882_h1_186: x1_186 + x1_187 >= 1
 c883_h1_186: - x1_186 - x1_187 >= -1
 c884_h1_187: x1_187 + x1_188 >= 1
 c885_h1_187: - x1_187 - x1_188 >= -1
 c886_h1_188: x1_188 + x1_189 >= 1
 c887_h1_188: - x1_188 - x1_189 >= -1
 c888_h1_189: x1_189 + x1_190 >= 1
 c889_h1_189: - x1_189 - x1_190 >= -1
 c890_h1_190: x1_190 + x1_191 >= 1
 c891_h1_190: - x1_190 - x1_191 >= -1
 c892_h1_191: x1_191 + x1_192 >= 1
 c893_h1_191: - x1_191 - x1_192 >= -1
 c894_h1_192: x1_192 + x1_193 >= 1
 c895_h1_192: - x1_192 - x1_193 >= -1
 c896_h1_193: x1_193 + x1_194 >= 1
 c897_h1_193: - x1_193 - x1_194 >= -1
 c898_h1_194: x1_194 + x1_195 >= 1
 c899_h1_194: - x1_194 - x1_195 >= -1
 c900_h1_195: x1_195 + x1_196 >= 1
 c901_h1_195: - x1_195 - x1_196 >= -1
 c902_h1_196: x1_196 + x1_197 >= 1
 c903_h1_196: - x1_196 - x1_197 >= -1
 c904_h1_197: x1_197 + x1_198 >= 1
 c905_h1_197: - x1_197 - x1_198 >= -1
 c906_h1_198: x1_198 + x1_199 >= 1
 c907_h1_198: - x1_198 - x1_199 >= -1
 c908_h1_199: x1_199 + x1_200 >= 1
 c909_h1_199: - x1_199 - x1_200 >= -1
 c910_h1_200: x1_200 + x1_201 >= 1
 c911_h1_200: - x1_200 - x1_201 >= -1
 c912_h1_201: x1_201 + x1_202 >= 1
 c913_h1_201: - x1_201 - x1_202 >= -1
 c914_h1_202: x1_202 + x1_203 >= 1
 c915_h1_202: - x1_202 - x1_203 >= -1
 c916_h1_203: x1_203 + x1_204 >= 1
 c917_h1_203: - x1_203 - x1_204 >= -1
 c918_h1_204: x1_204 + x1_205 >= 1
 c919_h1_204: - x1_204 - x1_205 >= -1
 c920_h1_205: x1_205 + x1_206 >= 1
 c921_h1_205: - x1_205 - x1_206 >= -1
 c922_h1_206: x1_206 + x1_207 >= 1
 c923_h1_206: - x1_206 - x1_207 >= -1
 c924_h1_207: x1_207 + x1_208 >= 1
 c925_h1_207: - x1_207 - x1_208 >= -1
 c926_h1_208: x1_208 + x1_209 >= 1
 c927_h1_208: - x1_208 - x1_209 >= -1
 c928_h1_209: x1_209 + x1_210 >= 1
 c929_h1_209: - x1_209 - x1_210 >= -1
 c930_h1_210: x1_210 + x1_211 >= 1
 c931_h1_210: - x1_210 - x1_211 >= -1
 c932_h1_211: x1_211 + x1_212 >= 1
 c933_h1_211: - x1_211 - x1_212 >= -1
 c934_h1_212: x1_212 + x1_213 >= 1
 c935_h1_212: - x1_212 - x1_213 >= -1
 c936_h1_213: x1_213 + x1_214 >= 1
 c937_h1_213: - x1_213 - x1_214 >= -1
 c938_h1_214: x1_214 + x1_215 >= 1
 c939_h1_214: - x1_214 - x1_215 >= -1
 c940_h1_215: x1_215 + x1_216 >= 1
 c941_h1_215: - x1_215 - x1_216 >= -1
 c942_h1_216: x1_216 + x1_217 >= 1
 c943_h1_216: - x1_216 - x1_217 >= -1
 c944_h1_217: x1_217 + x1_218 >= 1
 c945_h1_217: - x1_217 - x1_218 >= -1
 c946_h1_218: x1_218 + x1_219 >= 1
 c947_h1_218: - x1_218 - x1_219 >= -1
 c948_h1_219: x1_219 + x1_220 >= 1
 c949_h1_219: - x1_219 - x1_220 >= -1
 c950_h1_220: x1_220 + x1_221 >= 1
 c951_h1_220: - x1_220 - x1_221 >= -1
 c952_h1_221: x1_221 + x1_222 >= 1
 c953_h1_221: - x1_221 - x1_222 >= -1
 c954_h1_222: x1_222 + x1_223 >= 1
 c955_h1_222: - x1_222 - x1_223 >= -1
 c956_h1_223: x1_223 + x1_224 >= 1
 c957_h1_223: - x1_223 - x1_224 >= -1
 c958_h1_224: x1_224 + x1_225 >= 1
 c959_h1_224: - x1_224 - x1_225 >= -1
 c960_h1_225: x1_225 + x1_226 >= 1
 c961_h1_225: - x1_225 - x1_226 >= -1
 c962_h1_226: x1_226 + x1_227 >= 1
 c963_h1_226: - x1_226 - x1_227 >= -1
 c964_h1_227: x1_227 + x1_228 >= 1
 c965_h1_227: - x1_227 - x1_228 >= -1
 c966_h1_228: x1_228 + x1_229 >= 1
 c967_h1_228: - x1_228 - x1_229 >= -1
 c968_h1_229: x1_229 + x1_230 >= 1
 c969_h1_229: - x1_229 - x1_230 >= -1
 c970_h1_230: x1_230 + x1_231 >= 1
 c971_h1_230: - x1_230 - x1_231 >= -1
 c972_h1_231: x1_231 + x1_232 >= 1
 c973_h1_231: - x1_231 - x1_232 >= -1
 c974_h1_232: x1_232 + x1_233 >= 1
 c975_h1_232: - x1_232 - x1_233 >= -1
 c976_h1_233: x1_233 + x1_234 >= 1
 c977_h1_233: - x1_233 - x1_234 >= -1
 c978_h1_234: x1_234 + x1_235 >= 1
 c979_h1_234: - x1_234 - x1_235 >= -1
 c980_h1_235: x1_235 + x1_236 >= 1
 c981_h1_235: - x1_235 - x1_236 >= -1
 c982_h1_236: x1_236 + x1_237 >= 1
 c983_h1_236: - x1_236 - x1_237 >= -1
 c984_h1_237: x1_237 + x1_238 >= 1
 c985_h1_237: - x1_237 - x1_238 >= -1
 c986_h1_238: x1_238 + x1_239 >= 1
 c987_h1_238: - x1_238 - x1_239 >= -1
 c988_h1_239: x1_239 + x1_240 >= 1
 c989_h1_239: - x1_239 - x1_240 >= -1
 c990_h1_240: x1_240 + x1_241 >= 1
 c991_h1_240: - x1_240 - x1_241 >= -1
 c992_h1_241: x1_241 + x1_242 >= 1
 c993_h1_241: - x1_241 - x1_242 >= -1
 c994_h1_242: x1_242 + x1_243 >= 1
 c995_h1_242: - x1_242 - x1_243 >= -1
 c996_h1_243: x1_243 + x1_244 >= 1
 c997_h1_243: - x1_243 - x1_244 >= -1
 c998_h1_244: x1_244 + x1_245 >= 1
 c999_h1_244: - x1_244 - x1_245 >= -1
 c1000_h1_245: x1_245 + x1_246 >= 1
 c1001_h1_245: - x1_245 - x1_246 >= -1
 c1002_h1_246: x1_246 + x1_247 >= 1
 c1003_h1_246: - x1_246 - x1_247 >= -1
 c1004_h1_247: x1_247 + x1_248 >= 1
 c1005_h1_247: - x1_247 - x1_248 >= -1
 c1006_h1_248: x1_248 + x1_249 >= 1
 c1007_h1_248: - x1_248 - x1_249 >= -1
 c1008_h1_249: x1_249 + x1_250 >= 1
 c1009_h1_249: - x1_249 - x1_250 >= -1
 c1010_h1_250: x1_250 + x1_251 >= 1
 c1011_h1_250: - x1_250 - x1_251 >= -1
 c1012_h1_251: x1_251 + x1_252 >= 1
 c1013_h1_251: - x1_251 - x1_252 >= -1
 c1014_h1_252: x1_252 + x1_253 >= 1
 c1015_h1_252: - x1_252 - x1_253 >= -1
 c1016_h1_253: x1_253 + x1_254 >= 1
 c1017_h1_253: - x1_253 - x1_254 >= -1
 c1018_h1_254: x1_254 + x1_255 >= 1
 c1019_h1_254: - x1_254 - x1_255 >= -1
 c1020_v0_0: x0_0 + x1_0 >= 1
 c1021_v0_0: - x0_0 - x1_0 >= -1
 c1022_v0_1: x0_1 + x1_1 >= 1
 c1023_v0_1: - x0_1 - x1_1 >= -1
 c1024_v0_2: x0_2 + x1_2 >= 1
 c1025_v0_2: - x0_2 - x1_2 >= -1
 c1026_v0_3: x0_3 + x1_3 >= 1
 c1027_v0_3: - x0_3 - x1_3 >= -1
 c1028_v0_4: x0_4 + x1_4 >= 1
 c1029_v0_4: - x0_4 - x1_4 >= -1
 c1030_v0_5: x0_5 + x1_5 >= 1
 c1031_v0_5: - x0_5 - x1_5 >= -1
 c1032_v0_6: x0_6 + x1_6 >= 1
 c1033_v0_6: - x0_6 - x1_6 >= -1
 c1034_v0_7: x0_7 + x1_7 >= 1
 c1035_v0_7: - x0_7 - x1_7 >= -1
 c1036_v0_8: x0_8 + x1_8 >= 1
 c1037_v0_8: - x0_8 - x1_8 >= -1
 c1038_v0_9: x0_9 + x1_9 >= 1
 c1039_v0_9: - x0_9 - x1_9 >= -1
 c1040_v0_10: x0_10 + x1_10 >= 1
 c1041_v0_10: - x0_10 - x1_10 >= -1
 c1042_v0_11: x0_11 + x1_11 >= 1
 c1043_v0_11: - x0_11 - x1_11 >= -1
 c1044_v0_12: x0_12 + x1_12 >= 1
 c1045_v0_12: - x0_12 - x1_12 >= -1
 c1046_v0_13: x0_13 + x1_13 >= 1
 c1047_v0_13: - x0_13 - x1_13 >= -1
 c1048_v0_14: x0_14 + x1_14 >= 1
 c1049_v0_14: - x0_14 - x1_14 >= -1
 c1050_v0_15: x0_15 + x1_15 >= 1
 c1051_v0_15: - x0_15 - x1_15 >= -1
 c1052_v0_16: x0_16 + x1_16 >= 1
 c1053_v0_16: - x0_16 - x1_16 >= -1
 c1054_v0_17: x0_17 + x1_17 >= 1
 c1055_v0_17: - x0_17 - x1_17 >= -1
 c1056_v0_18: x0_18 + x1_18 >= 1
 c1057_v0_18: - x0_18 - x1_18 >= -1
 c1058_v0_19: x0_19 + x1_19 >= 1
 c1059_v0_19: - x0_19 - x1_19 >= -1
 c1060_v0_20: x0_20 + x1_20 >= 1
 c1061_v0_20: - x0_20 - x1_20 >= -1
 c1062_v0_21: x0_21 + x1_21 >= 1
 c1063_v0_21: - x0_21 - x1_21 >= -1
 c1064_v0_22: x0_22 + x1_22 >= 1
 c1065_v0_22: - x0_22 - x1_22 >= -1
 c1066_v0_23: x0_23 + x1_23 >= 1
 c1067_v0_23: - x0_23 - x1_23 >= -1
 c1068_v0_24: x0_24 + x1_24 >= 1
 c1069_v0_24: - x0_24 - x1_24 >= -1
 c1070_v0_25: x0_25 + x1_25 >= 1
 c1071_v0_25: - x0_25 - x1_25 >= -1
 c1072_v0_26: x0_26 + x1_26 >= 1
 c1073_v0_26: - x0_26 - x1_26 >= -1
 c1074_v0_27: x0_27 + x1_27 >= 1
 c1075_v0_27: - x0_27 - x1_27 >= -1
 c1076_v0_28: x0_28 + x1_28 >= 1
 c1077_v0_28: - x0_28 - x1_28 >= -1
 c1078_v0_29: x0_29 + x1_29 >= 1
 c1079_v0_29: - x0_29 - x1_29 >= -1
 c1080_v0_30: x0_30 + x1_30 >= 1
 c1081_v0_30: - x0_30 - x1_30 >= -1
 c1082_v0_31: x0_31 + x1_31 >= 1
 c1083_v0_31: - x0_31 - x1_31 >= -1
 c1084_v0_32: x0_32 + x1_32 >= 1
 c1085_v0_32: - x0_32 - x1_32 >= -1
 c1086_v0_33: x0_33 + x1_33 >= 1
 c1087_v0_33: - x0_33 - x1_33 >= -1
 c1088_v0_34: x0_34 + x1_34 >= 1
 c1089_v0_34: - x0_34 - x1_34 >= -1
 c1090_v0_35: x0_35 + x1_35 >= 1
 c1091_v0_35: - x0_35 - x1_35 >= -1
 c1092_v0_36: x0_36 + x1_36 >= 1
 c1093_v0_36: - x0_36 - x1_36 >= -1
 c1094_v0_37: x0_37 + x1_37 >= 1
 c1095_v0_37: - x0_37 - x1_37 >= -1
 c1096_v0_38: x0_38 + x1_38 >= 1
 c1097_v0_38: - x0_38 - x1_38 >= -1
 c1098_v0_39: x0_39 + x1_39 >= 1
 c1099_v0_39: - x0_39 - x1_39 >= -1
 c1100_v0_40: x0_40 + x1_40 >= 1
 c1101_v0_40: - x0_40 - x1_40 >= -1
 c1102_v0_41: x0_41 + x1_41 >= 1
 c1103_v0_41: - x0_41 - x1_41 >= -1
 c1104_v0_42: x0_42 + x1_42 >= 1
 c1105_v0_42: - x0_42 - x1_42 >= -1
 c1106_v0_43: x0_43 + x1_43 >= 1
 c1107_v0_43: - x0_43 - x1_43 >= -1
 c1108_v0_44: x0_44 + x1_44 >= 1
 c1109_v0_44: - x0_44 - x1_44 >= -1
 c1110_v0_45: x0_45 + x1_45 >= 1
 c1111_v0_45: - x0_45 - x1_45 >= -1
 c1112_v0_46: x0_46 + x1_46 >= 1
 c1113_v0_46: - x0_46 - x1_46 >= -1
 c1114_v0_47: x0_47 + x1_47 >= 1
 c1115_v0_47: - x0_47 - x1_47 >= -1
 c1116_v0_48: x0_48 + x1_48 >= 1
 c1117_v0_48: - x0_48 - x1_48 >= -1
 c1118_v0_49: x0_49 + x1_49 >= 1
 c1119_v0_49: - x0_49 - x1_49 >= -1
 c1120_v0_50: x0_50 + x1_50 >= 1
 c1121_v0_50: - x0_50 - x1_50 >= -1
 c1122_v0_51: x0_51 + x1_51 >= 1
 c1123_v0_51: - x0_51 - x1_51 >= -1
 c1124_v0_52: x0_52 + x1_52 >= 1
 c1125_v0_52: - x0_52 - x1_52 >= -1
 c1126_v0_53: x0_53 + x1_53 >= 1
 c1127_v0_53: - x0_53 - x1_53 >= -1
 c1128_v0_54: x0_54 + x1_54 >= 1
 c1129_v0_54: - x0_54 - x1_54 >= -1
 c1130_v0_55: x0_55 + x1_55 >= 1
 c1131_v0_55: - x0_55 - x1_55 >= -1
 c1132_v0_56: x0_56 + x1_56 >= 1
 c1133_v0_56: - x0_56 - x1_56 >= -1
 c1134_v0_57: x0_57 + x1_57 >= 1
 c1135_v0_57: - x0_57 - x1_57 >= -1
 c1136_v0_58: x0_58 + x1_58 >= 1
 c1137_v0_58: - x0_58 - x1_58 >= -1
 c1138_v0_59: x0_59 + x1_59 >= 1
 c1139_v0_59: - x0_59 - x1_59 >= -1
 c1140_v0_60: x0_60 + x1_60 >= 1
 c1141_v0_60: - x0_60 - x1_60 >= -1
 c1142_v0_61: x0_61 + x1_61 >= 1
 c1143_v0_61: - x0_61 - x1_61 >= -1
 c1144_v0_62: x0_62 + x1_62 >= 1
 c1145_v0_62: - x0_62 - x1_62 >= -1
 c1146_v0_63: x0_63 + x1_63 >= 1
 c1147_v0_63: - x0_63 - x1_63 >= -1
 c1148_v0_64: x0_64 + x1_64 >= 1
 c1149_v0_64: - x0_64 - x1_64 >= -1
 c1150_v0_65: x0_65 + x1_65 >= 1
 c1151_v0_65: - x0_65 - x1_65 >= -1
 c1152_v0_66: x0_66 + x1_66 >= 1
 c1153_v0_66: - x0_66 - x1_66 >= -1
 c1154_v0_67: x0_67 + x1_67 >= 1
 c1155_v0_67: - x0_67 - x1_67 >= -1
 c1156_v0_68: x0_68 + x1_68 >= 1
 c1157_v0_68: - x0_68 - x1_68 >= -1
 c1158_v0_69: x0_69 + x1_69 >= 1
 c1159_v0_69: - x0_69 - x1_69 >= -1
 c1160_v0_70: x0_70 + x1_70 >= 1
 c1161_v0_70: - x0_70 - x1_70 >= -1
 c1162_v0_71: x0_71 + x1_71 >= 1
 c1163_v0_71: - x0_71 - x1_71 >= -1
 c1164_v0_72: x0_72 + x1_72 >= 1
 c1165_v0_72: - x0_72 - x1_72 >= -1
 c1166_v0_73: x0_73 + x1_73 >= 1
 c1167_v0_73: - x0_73 - x1_73 >= -1
 c1168_v0_74: x0_74 + x1_74 >= 1
 c1169_v0_74: - x0_74 - x1_74 >= -1
 c1170_v0_75: x0_75 + x1_75 >= 1
 c1171_v0_75: - x0_75 - x1_75 >= -1
 c1172_v0_76: x0_76 + x1_76 >= 1
 c1173_v0_76: - x0_76 - x1_76 >= -1
 c1174_v0_77: x0_77 + x1_77 >= 1
 c1175_v0_77: - x0_77 - x1_77 >= -1
 c1176_v0_78: x0_78 + x1_78 >= 1
 c1177_v0_78: - x0_78 - x1_78 >= -1
 c1178_v0_79: x0_79 + x1_79 >= 1
 c1179_v0_79: - x0_79 - x1_79 >= -1
 c1180_v0_80: x0_80 + x1_80 >= 1
 c1181_v0_80: - x0_80 - x1_80 >= -1
 c1182_v0_81: x0_81 + x1_81 >= 1
 c1183_v0_81: - x0_81 - x1_81 >= -1
 c1184_v0_82: x0_82 + x1_82 >= 1
 c1185_v0_82: - x0_82 - x1_82 >= -1
 c1186_v0_83: x0_83 + x1_83 >= 1
 c1187_v0_83: - x0_83 - x1_83 >= -1
 c1188_v0_84: x0_84 + x1_84 >= 1
 c1189_v0_84: - x0_84 - x1_84 >= -1
 c1190_v0_85: x0_85 + x1_85 >= 1
 c1191_v0_85: - x0_85 - x1_85 >= -1
 c1192_v0_86: x0_86 + x1_86 >= 1
 c1193_v0_86: - x0_86 - x1_86 >= -1
 c1194_v0_87: x0_87 + x1_87 >= 1
 c1195_v0_87: - x0_87 - x1_87 >= -1
 c1196_v0_88: x0_88 + x1_88 >= 1
 c1197_v0_88: - x0_88 - x1_88 >= -1
 c1198_v0_89: x0_89 + x1_89 >= 1
 c1199_v0_89: - x0_89 - x1_89 >= -1
 c1200_v0_90: x0_90 + x1_90 >= 1
 c1201_v0_90: - x0_90 - x1_90 >= -1
 c1202_v0_91: x0_91 + x1_91 >= 1
 c1203_v0_91: - x0_91 - x1_91 >= -1
 c1204_v0_92: x0_92 + x1_92 >= 1
 c1205_v0_92: - x0_92 - x1_92 >= -1
 c1206_v0_93: x0_93 + x1_93 >= 1
 c1207_v0_93: - x0_93 - x1_93 >= -1
 c1208_v0_94: x0_94 + x1_94 >= 1
 c1209_v0_94: - x0_94 - x1_94 >= -1
 c1210_v0_95: x0_95 + x1_95 >= 1
 c1211_v0_95: - x0_95 - x1_95 >= -1
 c1212_v0_96: x0_96 + x1_96 >= 1
 c1213_v0_96: - x0_96 - x1_96 >= -1
 c1214_v0_97: x0_97 + x1_97 >= 1
 c1215_v0_97: - x0_97 - x1_97 >= -1
 c1216_v0_98: x0_98 + x1_98 >= 1
 c1217_v0_98: - x0_98 - x1_98 >= -1
 c1218_v0_99: x0_99 + x1_99 >= 1
 c1219_v0_99: - x0_99 - x1_99 >= -1
 c1220_v0_100: x0_100 + x1_100 >= 1
 c1221_v0_100: - x0_100 - x1_100 >= -1
 c1222_v0_101: x0_101 + x1_101 >= 1
 c1223_v0_101: - x0_101 - x1_101 >= -1
 c1224_v0_102: x0_102 + x1_102 >= 1
 c1225_v0_102: - x0_102 - x1_102 >= -1
 c1226_v0_103: x0_103 + x1_103 >= 1
 c1227_v0_103: - x0_103 - x1_103 >= -1
 c1228_v0_104: x0_104 + x1_104 >= 1
 c1229_v0_104: - x0_104 - x1_104 >= -1
 c1230_v0_105: x0_105 + x1_105 >= 1
 c1231_v0_105: - x0_105 - x1_105 >= -1
 c1232_v0_106: x0_106 + x1_106 >= 1
 c1233_v0_106: - x0_106 - x1_106 >= -1
 c1234_v0_107: x0_107 + x1_107 >= 1
 c1235_v0_107: - x0_107 - x1_107 >= -1
 c1236_v0_108: x0_108 + x1_108 >= 1
 c1237_v0_108: - x0_108 - x1_108 >= -1
 c1238_v0_109: x0_109 + x1_109 >= 1
 c1239_v0_109: - x0_109 - x1_109 >= -1
 c1240_v0_110: x0_110 + x1_110 >= 1
 c1241_v0_110: - x0_110 - x1_110 >= -1
 c1242_v0_111: x0_111 + x1_111 >= 1
 c1243_v0_111: - x0_111 - x1_111 >= -1
 c1244_v0_112: x0_112 + x1_112 >= 1
 c1245_v0_112: - x0_112 - x1_112 >= -1
 c1246_v0_113: x0_113 + x1_113 >= 1
 c1247_v0_113: - x0_113 - x1_113 >= -1
 c1248_v0_114: x0_114 + x1_114 >= 1
 c1249_v0_114: - x0_114 - x1_114 >= -1
 c1250_v0_115: x0_115 + x1_115 >= 1
 c1251_v0_115: - x0_115 - x1_115 >= -1
 c1252_v0_116: x0_116 + x1_116 >= 1
 c1253_v0_116: - x0_116 - x1_116 >= -1
 c1254_v0_117: x0_117 + x1_117 >= 1
 c1255_v0_117: - x0_117 - x1_117 >= -1
 c1256_v0_118: x0_118 + x1_118 >= 1
 c1257_v0_118: - x0_118 - x1_118 >= -1
 c1258_v0_119: x0_119 + x1_119 >= 1
 c1259_v0_119: - x0_119 - x1_119 >= -1
 c1260_v0_120: x0_120 + x1_120 >= 1
 c1261_v0_120: - x0_120 - x1_120 >= -1
 c1262_v0_121: x0_121 + x1_121 >= 1
 c1263_v0_121: - x0_121 - x1_121 >= -1
 c1264_v0_122: x0_122 + x1_122 >= 1
 c1265_v0_122: - x0_122 - x1_122 >= -1
 c1266_v0_123: x0_123 + x1_123 >= 1
 c1267_v0_123: - x0_123 - x1_123 >= -1
 c1268_v0_124: x0_124 + x1_124 >= 1
 c1269_v0_124: - x0_124 - x1_124 >= -1
 c1270_v0_125: x0_125 + x1_125 >= 1
 c1271_v0_125: - x0_125 - x1_125 >= -1
 c1272_v0_126: x0_126 + x1_126 >= 1
 c1273_v0_126: - x0_126 - x1_126 >= -1
 c1274_v0_127: x0_127 + x1_127 >= 1
 c1275_v0_127: - x0_127 - x1_127 >= -1
 c1276_v0_128: x0_128 + x1_128 >= 1
 c1277_v0_128: - x0_128 - x1_128 >= -1
 c1278_v0_129: x0_129 + x1_129 >= 1
 c1279_v0_129: - x0_129 - x1_129 >= -1
 c1280_v0_130: x0_130 + x1_130 >= 1
 c1281_v0_130: - x0_130 - x1_130 >= -1
 c1282_v0_131: x0_131 + x1_131 >= 1
 c1283_v0_131: - x0_131 - x1_131 >= -1
 c1284_v0_132: x0_132 + x1_132 >= 1
 c1285_v0_132: - x0_132 - x1_132 >= -1
 c1286_v0_133: x0_133 + x1_133 >= 1
 c1287_v0_133: - x0_133 - x1_133 >= -1
 c1288_v0_134: x0_134 + x1_134 >= 1
 c1289_v0_134: - x0_134 - x1_134 >= -1
 c1290_v0_135: x0_135 + x1_135 >= 1
 c1291_v0_135: - x0_135 - x1_135 >= -1
 c1292_v0_136: x0_136 + x1_136 >= 1
 c1293_v0_136: - x0_136 - x1_136 >= -1
 c1294_v0_137: x0_137 + x1_137 >= 1
 c1295_v0_137: - x0_137 - x1_137 >= -1
 c1296_v0_138: x0_138 + x1_138 >= 1
 c1297_v0_138: - x0_138 - x1_138 >= -1
 c1298_v0_139: x0_139 + x1_139 >= 1
 c1299_v0_139: - x0_139 - x1_139 >= -1
 c1300_v0_140: x0_140 + x1_140 >= 1
 c1301_v0_140: - x0_140 - x1_140 >= -1
 c1302_v0_141: x0_141 + x1_141 >= 1
 c1303_v0_141: - x0_141 - x1_141 >= -1
 c1304_v0_142: x0_142 + x1_142 >= 1
 c1305_v0_142: - x0_142 - x1_142 >= -1
 c1306_v0_143: x0_143 + x1_143 >= 1
 c1307_v0_143: - x0_143 - x1_143 >= -1
 c1308_v0_144: x0_144 + x1_144 >= 1
 c1309_v0_144: - x0_144 - x1_144 >= -1
 c1310_v0_145: x0_145 + x1_145 >= 1
 c1311_v0_145: - x0_145 - x1_145 >= -1
 c1312_v0_146: x0_146 + x1_146 >= 1
 c1313_v0_146: - x0_146 - x1_146 >= -1
 c1314_v0_147: x0_147 + x1_147 >= 1
 c1315_v0_147: - x0_147 - x1_147 >= -1
 c1316_v0_148: x0_148 + x1_148 >= 1
 c1317_v0_148: - x0_148 - x1_148 >= -1
 c1318_v0_149: x0_149 + x1_149 >= 1
 c1319_v0_149: - x0_149 - x1_149 >= -1
 c1320_v0_150: x0_150 + x1_150 >= 1
 c1321_v0_150: - x0_150 - x1_150 >= -1
 c1322_v0_151: x0_151 + x1_151 >= 1
 c1323_v0_151: - x0_151 - x1_151 >= -1
 c1324_v0_152: x0_152 + x1_152 >= 1
 c1325_v0_152: - x0_152 - x1_152 >= -1
 c1326_v0_153: x0_153 + x1_153 >= 1
 c1327_v0_153: - x0_153 - x1_153 >= -1
 c1328_v0_154: x0_154 + x1_154 >= 1
 c1329_v0_154: - x0_154 - x1_154 >= -1
 c1330_v0_155: x0_155 + x1_155 >= 1
 c1331_v0_155: - x0_155 - x1_155 >= -1
 c1332_v0_156: x0_156 + x1_156 >= 1
 c1333_v0_156: - x0_156 - x1_156 >= -1
 c1334_v0_157: x0_157 + x1_157 >= 1
 c1335_v0_157: - x0_157 - x1_157 >= -1
 c1336_v0_158: x0_158 + x1_158 >= 1
 c1337_v0_158: - x0_158 - x1_158 >= -1
 c1338_v0_159: x0_159 + x1_159 >= 1
 c1339_v0_159: - x0_159 - x1_159 >= -1
 c1340_v0_160: x0_160 + x1_160 >= 1
 c1341_v0_160: - x0_160 - x1_160 >= -1
 c1342_v0_161: x0_161 + x1_161 >= 1
 c1343_v0_161: - x0_161 - x1_161 >= -1
 c1344_v0_162: x0_162 + x1_162 >= 1
 c1345_v0_162: - x0_162 - x1_162 >= -1
 c1346_v0_163: x0_163 + x1_163 >= 1
 c1347_v0_163: - x0_163 - x1_163 >= -1
 c1348_v0_164: x0_164 + x1_164 >= 1
 c1349_v0_164: - x0_164 - x1_164 >= -1
 c1350_v0_165: x0_165 + x1_165 >= 1
 c1351_v0_165: - x0_165 - x1_165 >= -1
 c1352_v0_166: x0_166 + x1_166 >= 1
 c1353_v0_166: - x0_166 - x1_166 >= -1
 c1354_v0_167: x0_167 + x1_167 >= 1
 c1355_v0_167: - x0_167 - x1_167 >= -1
 c1356_v0_168: x0_168 + x1_168 >= 1
 c1357_v0_168: - x0_168 - x1_168 >= -1
 c1358_v0_169: x0_169 + x1_169 >= 1
 c1359_v0_169: - x0_169 - x1_169 >= -1
 c1360_v0_170: x0_170 + x1_170 >= 1
 c1361_v0_170: - x0_170 - x1_170 >= -1
 c1362_v0_171: x0_171 + x1_171 >= 1
 c1363_v0_171: - x0_171 - x1_171 >= -1
 c1364_v0_172: x0_172 + x1_172 >= 1
 c1365_v0_172: - x0_172 - x1_172 >= -1
 c1366_v0_173: x0_173 + x1_173 >= 1
 c1367_v0_173: - x0_173 - x1_173 >= -1
 c1368_v0_174: x0_174 + x1_174 >= 1
 c1369_v0_174: - x0_174 - x1_174 >= -1
 c1370_v0_175: x0_175 + x1_175 >= 1
 c1371_v0_175: - x0_175 - x1_175 >= -1
 c1372_v0_176: x0_176 + x1_176 >= 1
 c1373_v0_176: - x0_176 - x1_176 >= -1
 c1374_v0_177: x0_177 + x1_177 >= 1
 c1375_v0_177: - x0_177 - x1_177 >= -1
 c1376_v0_178: x0_178 + x1_178 >= 1
 c1377_v0_178: - x0_178 - x1_178 >= -1
 c1378_v0_179: x0_179 + x1_179 >= 1
 c1379_v0_179: - x0_179 - x1_179 >= -1
 c1380_v0_180: x0_180 + x1_180 >= 1
 c1381_v0_180: - x0_180 - x1_180 >= -1
 c1382_v0_181: x0_181 + x1_181 >= 1
 c1383_v0_181: - x0_181 - x1_181 >= -1
 c1384_v0_182: x0_182 + x1_182 >= 1
 c1385_v0_182: - x0_182 - x1_182 >= -1
 c1386_v0_183: x0_183 + x1_183 >= 1
 c1387_v0_183: - x0_183 - x1_183 >= -1
 c1388_v0_184: x0_184 + x1_184 >= 1
 c1389_v0_184: - x0_184 - x1_184 >= -1
 c1390_v0_185: x0_185 + x1_185 >= 1
 c1391_v0_185: - x0_185 - x1_185 >= -1
 c1392_v0_186: x0_186 + x1_186 >= 1
 c1393_v0_186: - x0_186 - x1_186 >= -1
 c1394_v0_187: x0_187 + x1_187 >= 1
 c1395_v0_187: - x0_187 - x1_187 >= -1
 c1396_v0_188: x0_188 + x1_188 >= 1
 c1397_v0_188: - x0_188 - x1_188 >= -1
 c1398_v0_189: x0_189 + x1_189 >= 1
 c1399_v0_189: - x0_189 - x1_189 >= -1
 c1400_v0_190: x0_190 + x1_190 >= 1
 c1401_v0_190: - x0_190 - x1_190 >= -1
 c1402_v0_191: x0_191 + x1_191 >= 1
 c1403_v0_191: - x0_191 - x1_191 >= -1
 c1404_v0_192: x0_192 + x1_192 >= 1
 c1405_v0_192: - x0_192 - x1_192 >= -1
 c1406_v0_193: x0_193 + x1_193 >= 1
 c1407_v0_193: - x0_193 - x1_193 >= -1
 c1408_v0_194: x0_194 + x1_194 >= 1
 c1409_v0_194: - x0_194 - x1_194 >= -1
 c1410_v0_195: x0_195 + x1_195 >= 1
 c1411_v0_195: - x0_195 - x1_195 >= -1
 c1412_v0_196: x0_196 + x1_196 >= 1
 c1413_v0_196: - x0_196 - x1_196 >= -1
 c1414_v0_197: x0_197 + x1_197 >= 1
 c1415_v0_197: - x0_197 - x1_197 >= -1
 c1416_v0_198: x0_198 + x1_198 >= 1
 c1417_v0_198: - x0_198 - x1_198 >= -1
 c1418_v0_199: x0_199 + x1_199 >= 1
 c1419_v0_199: - x0_199 - x1_199 >= -1
 c1420_v0_200: x0_200 + x1_200 >= 1
 c1421_v0_200: - x0_200 - x1_200 >= -1
 c1422_v0_201: x0_201 + x1_201 >= 1
 c1423_v0_201: - x0_201 - x1_201 >= -1
 c1424_v0_202: x0_202 + x1_202 >= 1
 c1425_v0_202: - x0_202 - x1_202 >= -1
 c1426_v0_203: x0_203 + x1_203 >= 1
 c1427_v0_203: - x0_203 - x1_203 >= -1
 c1428_v0_204: x0_204 + x1_204 >= 1
 c1429_v0_204: - x0_204 - x1_204 >= -1
 c1430_v0_205: x0_205 + x1_205 >= 1
 c1431_v0_205: - x0_205 - x1_205 >= -1
 c1432_v0_206: x0_206 + x1_206 >= 1
 c1433_v0_206: - x0_206 - x1_206 >= -1
 c1434_v0_207: x0_207 + x1_207 >= 1
 c1435_v0_207: - x0_207 - x1_207 >= -1
 c1436_v0_208: x0_208 + x1_208 >= 1
 c1437_v0_208: - x0_208 - x1_208 >= -1
 c1438_v0_209: x0_209 + x1_209 >= 1
 c1439_v0_209: - x0_209 - x1_209 >= -1
 c1440_v0_210: x0_210 + x1_210 >= 1
 c1441_v0_210: - x0_210 - x1_210 >= -1
 c1442_v0_211: x0_211 + x1_211 >= 1
 c1443_v0_211: - x0_211 - x1_211 >= -1
 c1444_v0_212: x0_212 + x1_212 >= 1
 c1445_v0_212: - x0_212 - x1_212 >= -1
 c1446_v0_213: x0_213 + x1_213 >= 1
 c1447_v0_213: - x0_213 - x1_213 >= -1
 c1448_v0_214: x0_214 + x1_214 >= 1
 c1449_v0_214: - x0_214 - x1_214 >= -1
 c1450_v0_215: x0_215 + x1_215 >= 1
 c1451_v0_215: - x0_215 - x1_215 >= -1
 c1452_v0_216: x0_216 + x1_216 >= 1
 c1453_v0_216: - x0_216 - x1_216 >= -1
 c1454_v0_217: x0_217 + x1_217 >= 1
 c1455_v0_217: - x0_217 - x1_217 >= -1
 c1456_v0_218: x0_218 + x1_218 >= 1
 c1457_v0_218: - x0_218 - x1_218 >= -1
 c1458_v0_219: x0_219 + x1_219 >= 1
 c1459_v0_219: - x0_219 - x1_219 >= -1
 c1460_v0_220: x0_220 + x1_220 >= 1
 c1461_v0_220: - x0_220 - x1_220 >= -1
 c1462_v0_221: x0_221 + x1_221 >= 1
 c1463_v0_221: - x0_221 - x1_221 >= -1
 c1464_v0_222: x0_222 + x1_222 >= 1
 c1465_v0_222: - x0_222 - x1_222 >= -1
 c1466_v0_223: x0_223 + x1_223 >= 1
 c1467_v0_223: - x0_223 - x1_223 >= -1
 c1468_v0_224: x0_224 + x1_224 >= 1
 c1469_v0_224: - x0_224 - x1_224 >= -1
 c1470_v0_225: x0_225 + x1_225 >= 1
 c1471_v0_225: - x0_225 - x1_225 >= -1
 c1472_v0_226: x0_226 + x1_226 >= 1
 c1473_v0_226: - x0_226 - x1_226 >= -1
 c1474_v0_227: x0_227 + x1_227 >= 1
 c1475_v0_227: - x0_227 - x1_227 >= -1
 c1476_v0_228: x0_228 + x1_228 >= 1
 c1477_v0_228: - x0_228 - x1_228 >= -1
 c1478_v0_229: x0_229 + x1_229 >= 1
 c1479_v0_229: - x0_229 - x1_229 >= -1
 c1480_v0_230: x0_230 + x1_230 >= 1
 c1481_v0_230: - x0_230 - x1_230 >= -1
 c1482_v0_231: x0_231 + x1_231 >= 1
 c1483_v0_231: - x0_231 - x1_231 >= -1
 c1484_v0_232: x0_232 + x1_232 >= 1
 c1485_v0_232: - x0_232 - x1_232 >= -1
 c1486_v0_233: x0_233 + x1_233 >= 1
 c1487_v0_233: - x0_233 - x1_233 >= -1
 c1488_v0_234: x0_234 + x1_234 >= 1
 c1489_v0_234: - x0_234 - x1_234 >= -1
 c1490_v0_235: x0_235 + x1_235 >= 1
 c1491_v0_235: - x0_235 - x1_235 >= -1
 c1492_v0_236: x0_236 + x1_236 >= 1
 c1493_v0_236: - x0_236 - x1_236 >= -1
 c1494_v0_237: x0_237 + x1_237 >= 1
 c1495_v0_237: - x0_237 - x1_237 >= -1
 c1496_v0_238: x0_238 + x1_238 >= 1
 c1497_v0_238: - x0_238 - x1_238 >= -1
 c1498_v0_239: x0_239 + x1_239 >= 1
 c1499_v0_239: - x0_239 - x1_239 >= -1
 c1500_v0_240: x0_240 + x1_240 >= 1
 c1501_v0_240: - x0_240 - x1_240 >= -1
 c1502_v0_241: x0_241 + x1_241 >= 1
 c1503_v0_241: - x0_241 - x1_241 >= -1
 c1504_v0_242: x0_242 + x1_242 >= 1
 c1505_v0_242: - x0_242 - x1_242 >= -1
 c1506_v0_243: x0_243 + x1_243 >= 1
 c1507_v0_243: - x0_243 - x1_243 >= -1
 c1508_v0_244: x0_244 + x1_244 >= 1
 c1509_v0_244: - x0_244 - x1_244 >= -1
 c1510_v0_245: x0_245 + x1_245 >= 1
 c1511_v0_245: - x0_245 - x1_245 >= -1
 c1512_v0_246: x0_246 + x1_246 >= 1
 c1513_v0_246: - x0_246 - x1_246 >= -1
 c1514_v0_247: x0_247 + x1_247 >= 1
 c1515_v0_247: - x0_247 - x1_247 >= -1
 c1516_v0_248: x0_248 + x1_248 >= 1
 c1517_v0_248: - x0_248 - x1_248 >= -1
 c1518_v0_249: x0_249 + x1_249 >= 1
 c1519_v0_249: - x0_249 - x1_249 >= -1
 c1520_v0_250: x0_250 + x1_250 >= 1
 c1521_v0_250: - x0_250 - x1_250 >= -1
 c1522_v0_251: x0_251 + x1_251 >= 1
 c1523_v0_251: - x0_251 - x1_251 >= -1
 c1524_v0_252: x0_252 + x1_252 >= 1
 c1525_v0_252: - x0_252 - x1_252 >= -1
 c1526_v0_253: x0_253 + x1_253 >= 1
 c1527_v0_253: - x0_253 - x1_253 >= -1
 c1528_v0_254: x0_254 + x1_254 >= 1
 c1529_v0_254: - x0_254 - x1_254 >= -1
 c1530_v0_255: x0_255 + x1_255 >= 1
 c1531_v0_255: - x0_255 - x1_255 >= -1
Binary
 x0_0
 x0_1
 x0_2
 x0_3
 x0_4
 x0_5
 x0_6
 x0_7
 x0_8
 x0_9
 x0_10
 x0_11
 x0_12
 x0_13
 x0_14
 x0_15
 x0_16
 x0_17
 x0_18
 x0_19
 x0_20
 x0_21
 x0_22
 x0_23
 x0_24
 x0_25
 x0_26
 x0_27
 x0_28
 x0_29
 x0_30
 x0_31
 x0_32
 x0_33
 x0_34
 x0_35
 x0_36
 x0_37
 x0_38
 x0_39
 x0_40
 x0_41
 x0_42
 x0_43
 x0_44
 x0_45
 x0_46
 x0_47
 x0_48
 x0_49
 x0_50
 x0_51
 x0_52
 x0_53
 x0_54
 x0_55
 x0_56
 x0_57
 x0_58
 x0_59
 x0_60
 x0_61
 x0_62
 x0_63
 x0_64
 x0_65
 x0_66
 x0_67
 x0_68
 x0_69
 x0_70
 x0_71
 x0_72
 x0_73
 x0_74
 x0_75
 x0_76
 x0_77
 x0_78
 x0_79
 x0_80
 x0_81
 x0_82
 x0_83
 x0_84
 x0_85
 x0_86
 x0_87
 x0_88
 x0_89
 x0_90
 x0_91
 x0_92
 x0_93
 x0_94
 x0_95
 x0_96
 x0_97
 x0_98
 x0_99
 x0_100
 x0_101
 x0_102
 x0_103
 x0_104
 x0_105
 x0_106
 x0_107
 x0_108
 x0_109
 x0_110
 x0_111
 x0_112
 x0_113
 x0_114
 x0_115
 x0_116
 x0_117
 x0_118
 x0_119
 x0_120
 x0_121
 x0_122
 x0_123
 x0_124
 x0_125
 x0_126
 x0_127
 x0_128
 x0_129
 x0_130
 x0_131
 x0_132
 x0_133
 x0_134
 x0_135
 x0_136
 x0_137
 x0_138
 x0_139
 x0_140
 x0_141
 x0_142
 x0_143
 x0_144
 x0_145
 x0_146
 x0_147
 x0_148
 x0_149
 x0_150
 x0_151
 x0_152
 x0_153
 x0_154
 x0_155
 x0_156
 x0_157
 x0_158
 x0_159
 x0_160
 x0_161
 x0_162
 x0_163
 x0_164
 x0_165
 x0_166
 x0_167
 x0_168
 x0_169
 x0_170
 x0_171
 x0_172
 x0_173
 x0_174
 x0_175
 x0_176
 x0_177
 x0_178
 x0_179
 x0_180
 x0_181
 x0_182
 x0_183
 x0_184
 x0_185
 x0_186
 x0_187
 x0_188
 x0_189
 x0_190
 x0_191
 x0_192
 x0_193
 x0_194
 x0_195
 x0_196
 x0_197
 x0_198
 x0_199
 x0_200
 x0_201
 x0_202
 x0_203
 x0_204
 x0_205
 x0_206
 x0_207
 x0_208
 x0_209
 x0_210
 x0_211
 x0_212
 x0_213
 x0_214
 x0_215
 x0_216
 x0_217
 x0_218
 x0_219
 x0_220
 x0_221
 x0_222
 x0_223
 x0_224
 x0_225
 x0_226
 x0_227
 x0_228
 x0_229
 x0_230
 x0_231
 x0_232
 x0_233
 x0_234
 x0_235
 x0_236
 x0_237
 x0_238
 x0_239
 x0_240
 x0_241
 x0_242
 x0_243
 x0_244
 x0_245
 x0_246
 x0_247
 x0_248
 x0_249
 x0_250
 x0_251
 x0_252
 x0_253
 x0_254
 x0_255
 x1_0
 x1_1
 x1_2
 x1_3
 x1_4
 x1_5
 x1_6
 x1_7
 x1_8
 x1_9
 x1_10
 x1_11
 x1_12
 x1_13
 x1_14
 x1_15
 x1_16
 x1_17
 x1_18
 x1_19
 x1_20
 x1_21
 x1_22
 x1_23
 x1_24
 x1_25
 x1_26
 x1_27
 x1_28
 x1_29
 x1_30
 x1_31
 x1_32
 x1_33
 x1_34
 x1_35
 x1_36
 x1_37
 x1_38
 x1_39
 x1_40
 x1_41
 x1_42
 x1_43
 x1_44
 x1_45
 x1_46
 x1_47
 x1_48
 x1_49
 x1_50
 x1_51
 x1_52
 x1_53
 x1_54
 x1_55
 x1_56
 x1_57
 x1_58
 x1_59
 x1_60
 x1_61
 x1_62
 x1_63
 x1_64
 x1_65
 x1_66
 x1_67
 x1_68
 x1_69
 x1_70
 x1_71
 x1_72
 x1_73
 x1_74
 x1_75
 x1_76
 x1_77
 x1_78
 x1_79
 x1_80
 x1_81
 x1_82
 x1_83
 x1_84
 x1_85
 x1_86
 x1_87
 x1_88
 x1_89
 x1_90
 x1_91
 x1_92
 x1_93
 x1_94
 x1_95
 x1_96
 x1_97
 x1_98
 x1_99
 x1_100
 x1_101
 x1_102
 x1_103
 x1_104
 x1_105
 x1_106
 x1_107
 x1_108
 x1_109
 x1_110
 x1_111
 x1_112
 x1_113
 x1_114
 x1_115
 x1_116
 x1_117
 x1_118
 x1_119
 x1_120
 x1_121
 x1_122
 x1_123
 x1_124
 x1_125
 x1_126
 x1_127
 x1_128
 x1_129
 x1_130
 x1_131
 x1_132
 x1_133
 x1_134
 x1_135
 x1_136
 x1_137
 x1_138
 x1_139
 x1_140
 x1_141
 x1_142
 x1_143
 x1_144
 x1_145
 x1_146
 x1_147
 x1_148
 x1_149
 x1_150
 x1_151
 x1_152
 x1_153
 x1_154
 x1_155
 x1_156
 x1_157
 x1_158
 x1_159
 x1_160
 x1_161
 x1_162
 x1_163
 x1_164
 x1_165
 x1_166
 x1_167
 x1_168
 x1_169
 x1_170
 x1_171
 x1_172
 x1_173
 x1_174
 x1_175
 x1_176
 x1_177
 x1_178
 x1_179
 x1_180
 x1_181
 x1_182
 x1_183
 x1_184
 x1_185
 x1_186
 x1_187
 x1_188
 x1_189
 x1_190
 x1_191
 x1_192
 x1_193
 x1_194
 x1_195
 x1_196
 x1_197
 x1_198
 x1_199
 x1_200
 x1_201
 x1_202
 x1_203
 x1_204
 x1_205
 x1_206
 x1_207
 x1_208
 x1_209
 x1_210
 x1_211
 x1_212
 x1_213
 x1_214
 x1_215
 x1_216
 x1_217
 x1_218
 x1_219
 x1_220
 x1_221
 x1_222
 x1_223
 x1_224
 x1_225
 x1_226
 x1_227
 x1_228
 x1_229
 x1_230
 x1_231
 x1_232
 x1_233
 x1_234
 x1_235
 x1_236
 x1_237
 x1_238
 x1_239
 x1_240
 x1_241
 x1_242
 x1_243
 x1_244
 x1_245
 x1_246
 x1_247
 x1_248
 x1_249
 x1_250
 x1_251
 x1_252
 x1_253
 x1_254
 x1_255
End
