c var 1 x0_0
c var 2 x0_1
c var 3 x0_2
c var 4 x0_3
c var 5 x0_4
c var 6 x0_5
c var 7 x0_6
c var 8 x0_7
c var 9 x0_8
c var 10 x0_9
c var 11 x0_10
c var 12 x0_11
c var 13 x0_12
c var 14 x0_13
c var 15 x0_14
c var 16 x0_15
c var 17 x1_0
c var 18 x1_1
c var 19 x1_2
c var 20 x1_3
c var 21 x1_4
c var 22 x1_5
c var 23 x1_6
c var 24 x1_7
c var 25 x1_8
c var 26 x1_9
c var 27 x1_10
c var 28 x1_11
c var 29 x1_12
c var 30 x1_13
c var 31 x1_14
c var 32 x1_15
c forbid h0_0 {'x0_0': 0, 'x0_1': 0}
c forbid h0_0 {'x0_0': 1, 'x0_1': 1}
c forbid h0_1 {'x0_1': 0, 'x0_2': 0}
c forbid h0_1 {'x0_1': 1, 'x0_2': 1}
c forbid h0_2 {'x0_2': 0, 'x0_3': 0}
c forbid h0_2 {'x0_2': 1, 'x0_3': 1}
c forbid h0_3 {'x0_3': 0, 'x0_4': 0}
c forbid h0_3 {'x0_3': 1, 'x0_4': 1}
c forbid h0_4 {'x0_4': 0, 'x0_5': 0}
c forbid h0_4 {'x0_4': 1, 'x0_5': 1}
c forbid h0_5 {'x0_5': 0, 'x0_6': 0}
c forbid h0_5 {'x0_5': 1, 'x0_6': 1}
c forbid h0_6 {'x0_6': 0, 'x0_7': 0}
c forbid h0_6 {'x0_6': 1, 'x0_7': 1}
c forbid h0_7 {'x0_7': 0, 'x0_8': 0}
c forbid h0_7 {'x0_7': 1, 'x0_8': 1}
c forbid h0_8 {'x0_8': 0, 'x0_9': 0}
c forbid h0_8 {'x0_8': 1, 'x0_9': 1}
c forbid h0_9 {'x0_9': 0, 'x0_10': 0}
c forbid h0_9 {'x0_9': 1, 'x0_10': 1}
c forbid h0_10 {'x0_10': 0, 'x0_11': 0}
c forbid h0_10 {'x0_10': 1, 'x0_11': 1}
c forbid h0_11 {'x0_11': 0, 'x0_12': 0}
c forbid h0_11 {'x0_11': 1, 'x0_12': 1}
c forbid h0_12 {'x0_12': 0, 'x0_13': 0}
c forbid h0_12 {'x0_12': 1, 'x0_13': 1}
c forbid h0_13 {'x0_13': 0, 'x0_14': 0}
c forbid h0_13 {'x0_13': 1, 'x0_14': 1}
c forbid h0_14 {'x0_14': 0, 'x0_15': 0}
c forbid h0_14 {'x0_14': 1, 'x0_15': 1}
c forbid h1_0 {'x1_0': 0, 'x1_1': 0}
c forbid h1_0 {'x1_0': 1, 'x1_1': 1}
c forbid h1_1 {'x1_1': 0, 'x1_2': 0}
c forbid h1_1 {'x1_1': 1, 'x1_2': 1}
c forbid h1_2 {'x1_2': 0, 'x1_3': 0}
c forbid h1_2 {'x1_2': 1, 'x1_3': 1}
c forbid h1_3 {'x1_3': 0, 'x1_4': 0}
c forbid h1_3 {'x1_3': 1, 'x1_4': 1}
c forbid h1_4 {'x1_4': 0, 'x1_5': 0}
c forbid h1_4 {'x1_4': 1, 'x1_5': 1}
c forbid h1_5 {'x1_5': 0, 'x1_6': 0}
c forbid h1_5 {'x1_5': 1, 'x1_6': 1}
c forbid h1_6 {'x1_6': 0, 'x1_7': 0}
c forbid h1_6 {'x1_6': 1, 'x1_7': 1}
c forbid h1_7 {'x1_7': 0, 'x1_8': 0}
c forbid h1_7 {'x1_7': 1, 'x1_8': 1}
c forbid h1_8 {'x1_8': 0, 'x1_9': 0}
c forbid h1_8 {'x1_8': 1, 'x1_9': 1}
c forbid h1_9 {'x1_9': 0, 'x1_10': 0}
c forbid h1_9 {'x1_9': 1, 'x1_10': 1}
c forbid h1_10 {'x1_10': 0, 'x1_11': 0}
c forbid h1_10 {'x1_10': 1, 'x1_11': 1}
c forbid h1_11 {'x1_11': 0, 'x1_12': 0}
c forbid h1_11 {'x1_11': 1, 'x1_12': 1}
c forbid h1_12 {'x1_12': 0, 'x1_13': 0}
c forbid h1_12 {'x1_12': 1, 'x1_13': 1}
c forbid h1_13 {'x1_13': 0, 'x1_14': 0}
c forbid h1_13 {'x1_13': 1, 'x1_14': 1}
c forbid h1_14 {'x1_14': 0, 'x1_15': 0}
c forbid h1_14 {'x1_14': 1, 'x1_15': 1}
c forbid v0_0 {'x0_0': 0, 'x1_0': 0}
c forbid v0_0 {'x0_0': 1, 'x1_0': 1}
c forbid v0_1 {'x0_1': 0, 'x1_1': 0}
c forbid v0_1 {'x0_1': 1, 'x1_1': 1}
c forbid v0_2 {'x0_2': 0, 'x1_2': 0}
c forbid v0_2 {'x0_2': 1, 'x1_2': 1}
c forbid v0_3 {'x0_3': 0, 'x1_3': 0}
c forbid v0_3 {'x0_3': 1, 'x1_3': 1}
c forbid v0_4 {'x0_4': 0, 'x1_4': 0}
c forbid v0_4 {'x0_4': 1, 'x1_4': 1}
c forbid v0_5 {'x0_5': 0, 'x1_5': 0}
c forbid v0_5 {'x0_5': 1, 'x1_5': 1}
c forbid v0_6 {'x0_6': 0, 'x1_6': 0}
c forbid v0_6 {'x0_6': 1, 'x1_6': 1}
c forbid v0_7 {'x0_7': 0, 'x1_7': 0}
c forbid v0_7 {'x0_7': 1, 'x1_7': 1}
c forbid v0_8 {'x0_8': 0, 'x1_8': 0}
c forbid v0_8 {'x0_8': 1, 'x1_8': 1}
c forbid v0_9 {'x0_9': 0, 'x1_9': 0}
c forbid v0_9 {'x0_9': 1, 'x1_9': 1}
c forbid v0_10 {'x0_10': 0, 'x1_10': 0}
c forbid v0_10 {'x0_10': 1, 'x1_10': 1}
c forbid v0_11 {'x0_11': 0, 'x1_11': 0}
c forbid v0_11 {'x0_11': 1, 'x1_11': 1}
c forbid v0_12 {'x0_12': 0, 'x1_12': 0}
c forbid v0_12 {'x0_12': 1, 'x1_12': 1}
c forbid v0_13 {'x0_13': 0, 'x1_13': 0}
c forbid v0_13 {'x0_13': 1, 'x1_13': 1}
c forbid v0_14 {'x0_14': 0, 'x1_14': 0}
c forbid v0_14 {'x0_14': 1, 'x1_14': 1}
c forbid v0_15 {'x0_15': 0, 'x1_15': 0}
c forbid v0_15 {'x0_15': 1, 'x1_15': 1}
p cnf 32 92
1 2 0
-1 -2 0
2 3 0
-2 -3 0
3 4 0
-3 -4 0
4 5 0
-4 -5 0
5 6 0
-5 -6 0
6 7 0
-6 -7 0
7 8 0
-7 -8 0
8 9 0
-8 -9 0
9 10 0
-9 -10 0
10 11 0
-10 -11 0
11 12 0
-11 -12 0
12 13 0
-12 -13 0
13 14 0
-13 -14 0
14 15 0
-14 -15 0
15 16 0
-15 -16 0
17 18 0
-17 -18 0
18 19 0
-18 -19 0
19 20 0
-19 -20 0
20 21 0
-20 -21 0
21 22 0
-21 -22 0
22 23 0
-22 -23 0
23 24 0
-23 -24 0
24 25 0
-24 -25 0
25 26 0
-25 -26 0
26 27 0
-26 -27 0
27 28 0
-27 -28 0
28 29 0
-28 -29 0
29 30 0
-29 -30 0
30 31 0
-30 -31 0
31 32 0
-31 -32 0
1 17 0
-1 -17 0
2 18 0
-2 -18 0
3 19 0
-3 -19 0
4 20 0
-4 -20 0
5 21 0
-5 -21 0
6 22 0
-6 -22 0
7 23 0
-7 -23 0
8 24 0
-8 -24 0
9 25 0
-9 -25 0
10 26 0
-10 -26 0
11 27 0
-11 -27 0
12 28 0
-12 -28 0
13 29 0
-13 -29 0
14 30 0
-14 -30 0
15 31 0
-15 -31 0
16 32 0
-16 -32 0
