\ Boolean forbidden-tuple encoding
Minimize
 obj: 0
Subject To
 c0_neq0_1: x0 + x1 >= 1
 c1_neq0_1: - x0 - x1 >= -1
 c2_neq1_2: x1 + x2 >= 1
 c3_neq1_2: - x1 - x2 >= -1
 c4_neq2_3: x2 + x3 >= 1
 c5_neq2_3: - x2 - x3 >= -1
 c6_neq3_4: x3 + x4 >= 1
 c7_neq3_4: - x3 - x4 >= -1
 c8_neq4_5: x4 + x5 >= 1
 c9_neq4_5: - x4 - x5 >= -1
 c10_neq5_6: x5 + x6 >= 1
 c11_neq5_6: - x5 - x6 >= -1
 c12_neq6_7: x6 + x7 >= 1
 c13_neq6_7: - x6 - x7 >= -1
 c14_neq7_8: x7 + x8 >= 1
 c15_neq7_8: - x7 - x8 >= -1
 c16_neq8_9: x8 + x9 >= 1
 c17_neq8_9: - x8 - x9 >= -1
 c18_neq9_10: x9 + x10 >= 1
 c19_neq9_10: - x9 - x10 >= -1
 c20_neq10_11: x10 + x11 >= 1
 c21_neq10_11: - x10 - x11 >= -1
 c22_neq11_12: x11 + x12 >= 1
 c23_neq11_12: - x11 - x12 >= -1
 c24_neq12_13: x12 + x13 >= 1
 c25_neq12_13: - x12 - x13 >= -1
 c26_neq13_14: x13 + x14 >= 1
 c27_neq13_14: - x13 - x14 >= -1
 c28_neq14_15: x14 + x15 >= 1
 c29_neq14_15: - x14 - x15 >= -1
 c30_neq15_16: x15 + x16 >= 1
 c31_neq15_16: - x15 - x16 >= -1
 c32_neq16_17: x16 + x17 >= 1
 c33_neq16_17: - x16 - x17 >= -1
 c34_neq17_18: x17 + x18 >= 1
 c35_neq17_18: - x17 - x18 >= -1
 c36_neq18_19: x18 + x19 >= 1
 c37_neq18_19: - x18 - x19 >= -1
 c38_neq19_20: x19 + x20 >= 1
 c39_neq19_20: - x19 - x20 >= -1
 c40_neq20_21: x20 + x21 >= 1
 c41_neq20_21: - x20 - x21 >= -1
 c42_neq21_22: x21 + x22 >= 1
 c43_neq21_22: - x21 - x22 >= -1
 c44_neq22_23: x22 + x23 >= 1
 c45_neq22_23: - x22 - x23 >= -1
 c46_neq23_24: x23 + x24 >= 1
 c47_neq23_24: - x23 - x24 >= -1
 c48_neq24_25: x24 + x25 >= 1
 c49_neq24_25: - x24 - x25 >= -1
 c50_neq25_26: x25 + x26 >= 1
 c51_neq25_26: - x25 - x26 >= -1
 c52_neq26_27: x26 + x27 >= 1
 c53_neq26_27: - x26 - x27 >= -1
 c54_neq27_28: x27 + x28 >= 1
 c55_neq27_28: - x27 - x28 >= -1
 c56_neq28_29: x28 + x29 >= 1
 c57_neq28_29: - x28 - x29 >= -1
 c58_neq29_30: x29 + x30 >= 1
 c59_neq29_30: - x29 - x30 >= -1
 c60_neq30_31: x30 + x31 >= 1
 c61_neq30_31: - x30 - x31 >= -1
 c62_neq31_32: x31 + x32 >= 1
 c63_neq31_32: - x31 - x32 >= -1
 c64_neq32_33: x32 + x33 >= 1
 c65_neq32_33: - x32 - x33 >= -1
 c66_neq33_34: x33 + x34 >= 1
 c67_neq33_34: - x33 - x34 >= -1
 c68_neq34_35: x34 + x35 >= 1
 c69_neq34_35: - x34 - x35 >= -1
 c70_neq35_36: x35 + x36 >= 1
 c71_neq35_36: - x35 - x36 >= -1
 c72_neq36_37: x36 + x37 >= 1
 c73_neq36_37: - x36 - x37 >= -1
 c74_neq37_38: x37 + x38 >= 1
 c75_neq37_38: - x37 - x38 >= -1
 c76_neq38_39: x38 + x39 >= 1
 c77_neq38_39: - x38 - x39 >= -1
 c78_neq39_40: x39 + x40 >= 1
 c79_neq39_40: - x39 - x40 >= -1
 c80_neq40_41: x40 + x41 >= 1
 c81_neq40_41: - x40 - x41 >= -1
 c82_neq41_42: x41 + x42 >= 1
 c83_neq41_42: - x41 - x42 >= -1
 c84_neq42_43: x42 + x43 >= 1
 c85_neq42_43: - x42 - x43 >= -1
 c86_neq43_44: x43 + x44 >= 1
 c87_neq43_44: - x43 - x44 >= -1
 c88_neq44_45: x44 + x45 >= 1
 c89_neq44_45: - x44 - x45 >= -1
 c90_neq45_46: x45 + x46 >= 1
 c91_neq45_46: - x45 - x46 >= -1
 c92_neq46_47: x46 + x47 >= 1
 c93_neq46_47: - x46 - x47 >= -1
 c94_neq47_48: x47 + x48 >= 1
 c95_neq47_48: - x47 - x48 >= -1
 c96_neq48_49: x48 + x49 >= 1
 c97_neq48_49: - x48 - x49 >= -1
 c98_neq49_50: x49 + x50 >= 1
 c99_neq49_50: - x49 - x50 >= -1
 c100_neq50_51: x50 + x51 >= 1
 c101_neq50_51: - x50 - x51 >= -1
 c102_neq51_52: x51 + x52 >= 1
 c103_neq51_52: - x51 - x52 >= -1
 c104_neq52_53: x52 + x53 >= 1
 c105_neq52_53: - x52 - x53 >= -1
 c106_neq53_54: x53 + x54 >= 1
 c107_neq53_54: - x53 - x54 >= -1
 c108_neq54_55: x54 + x55 >= 1
 c109_neq54_55: - x54 - x55 >= -1
 c110_neq55_56: x55 + x56 >= 1
 c111_neq55_56: - x55 - x56 >= -1
 c112_neq56_57: x56 + x57 >= 1
 c113_neq56_57: - x56 - x57 >= -1
 c114_neq57_58: x57 + x58 >= 1
 c115_neq57_58: - x57 - x58 >= -1
 c116_neq58_59: x58 + x59 >= 1
 c117_neq58_59: - x58 - x59 >= -1
 c118_neq59_60: x59 + x60 >= 1
 c119_neq59_60: - x59 - x60 >= -1
 c120_neq60_61: x60 + x61 >= 1
 c121_neq60_61: - x60 - x61 >= -1
 c122_neq61_62: x61 + x62 >= 1
 c123_neq61_62: - x61 - x62 >= -1
 c124_neq62_63: x62 + x63 >= 1
 c125_neq62_63: - x62 - x63 >= -1
 c126_neq63_64: x63 + x64 >= 1
 c127_neq63_64: - x63 - x64 >= -1
 c128_neq64_65: x64 + x65 >= 1
 c129_neq64_65: - x64 - x65 >= -1
 c130_neq65_66: x65 + x66 >= 1
 c131_neq65_66: - x65 - x66 >= -1
 c132_neq66_67: x66 + x67 >= 1
 c133_neq66_67: - x66 - x67 >= -1
 c134_neq67_68: x67 + x68 >= 1
 c135_neq67_68: - x67 - x68 >= -1
 c136_neq68_69: x68 + x69 >= 1
 c137_neq68_69: - x68 - x69 >= -1
 c138_neq69_70: x69 + x70 >= 1
 c139_neq69_70: - x69 - x70 >= -1
 c140_neq70_71: x70 + x71 >= 1
 c141_neq70_71: - x70 - x71 >= -1
 c142_neq71_72: x71 + x72 >= 1
 c143_neq71_72: - x71 - x72 >= -1
 c144_neq72_73: x72 + x73 >= 1
 c145_neq72_73: - x72 - x73 >= -1
 c146_neq73_74: x73 + x74 >= 1
 c147_neq73_74: - x73 - x74 >= -1
 c148_neq74_75: x74 + x75 >= 1
 c149_neq74_75: - x74 - x75 >= -1
 c150_neq75_76: x75 + x76 >= 1
 c151_neq75_76: - x75 - x76 >= -1
 c152_neq76_77: x76 + x77 >= 1
 c153_neq76_77: - x76 - x77 >= -1
 c154_neq77_78: x77 + x78 >= 1
 c155_neq77_78: - x77 - x78 >= -1
 c156_neq78_79: x78 + x79 >= 1
 c157_neq78_79: - x78 - x79 >= -1
 c158_neq79_80: x79 + x80 >= 1
 c159_neq79_80: - x79 - x80 >= -1
 c160_neq80_81: x80 + x81 >= 1
 c161_neq80_81: - x80 - x81 >= -1
 c162_neq81_82: x81 + x82 >= 1
 c163_neq81_82: - x81 - x82 >= -1
 c164_neq82_83: x82 + x83 >= 1
 c165_neq82_83: - x82 - x83 >= -1
 c166_neq83_84: x83 + x84 >= 1
 c167_neq83_84: - x83 - x84 >= -1
 c168_neq84_85: x84 + x85 >= 1
 c169_neq84_85: - x84 - x85 >= -1
 c170_neq85_86: x85 + x86 >= 1
 c171_neq85_86: - x85 - x86 >= -1
 c172_neq86_87: x86 + x87 >= 1
 c173_neq86_87: - x86 - x87 >= -1
 c174_neq87_88: x87 + x88 >= 1
 c175_neq87_88: - x87 - x88 >= -1
 c176_neq88_89: x88 + x89 >= 1
 c177_neq88_89: - x88 - x89 >= -1
 c178_neq89_90: x89 + x90 >= 1
 c179_neq89_90: - x89 - x90 >= -1
 c180_neq90_91: x90 + x91 >= 1
 c181_neq90_91: - x90 - x91 >= -1
 c182_neq91_92: x91 + x92 >= 1
 c183_neq91_92: - x91 - x92 >= -1
 c184_neq92_93: x92 + x93 >= 1
 c185_neq92_93: - x92 - x93 >= -1
 c186_neq93_94: x93 + x94 >= 1
 c187_neq93_94: - x93 - x94 >= -1
 c188_neq94_95: x94 + x95 >= 1
 c189_neq94_95: - x94 - x95 >= -1
 c190_neq95_96: x95 + x96 >= 1
 c191_neq95_96: - x95 - x96 >= -1
 c192_neq96_97: x96 + x97 >= 1
 c193_neq96_97: - x96 - x97 >= -1
 c194_neq97_98: x97 + x98 >= 1
 c195_neq97_98: - x97 - x98 >= -1
 c196_neq98_99: x98 + x99 >= 1
 c197_neq98_99: - x98 - x99 >= -1
 c198_neq99_100: x99 + x100 >= 1
 c199_neq99_100: - x99 - x100 >= -1
 c200_neq100_101: x100 + x101 >= 1
 c201_neq100_101: - x100 - x101 >= -1
 c202_neq101_102: x101 + x102 >= 1
 c203_neq101_102: - x101 - x102 >= -1
 c204_neq102_103: x102 + x103 >= 1
 c205_neq102_103: - x102 - x103 >= -1
 c206_neq103_104: x103 + x104 >= 1
 c207_neq103_104: - x103 - x104 >= -1
 c208_neq104_105: x104 + x105 >= 1
 c209_neq104_105: - x104 - x105 >= -1
 c210_neq105_106: x105 + x106 >= 1
 c211_neq105_106: - x105 - x106 >= -1
 c212_neq106_107: x106 + x107 >= 1
 c213_neq106_107: - x106 - x107 >= -1
 c214_neq107_108: x107 + x108 >= 1
 c215_neq107_108: - x107 - x108 >= -1
 c216_neq108_109: x108 + x109 >= 1
 c217_neq108_109: - x108 - x109 >= -1
 c218_neq109_110: x109 + x110 >= 1
 c219_neq109_110: - x109 - x110 >= -1
 c220_neq110_111: x110 + x111 >= 1
 c221_neq110_111: - x110 - x111 >= -1
 c222_neq111_112: x111 + x112 >= 1
 c223_neq111_112: - x111 - x112 >= -1
 c224_neq112_113: x112 + x113 >= 1
 c225_neq112_113: - x112 - x113 >= -1
 c226_neq113_114: x113 + x114 >= 1
 c227_neq113_114: - x113 - x114 >= -1
 c228_neq114_115: x114 + x115 >= 1
 c229_neq114_115: - x114 - x115 >= -1
 c230_neq115_116: x115 + x116 >= 1
 c231_neq115_116: - x115 - x116 >= -1
 c232_neq116_117: x116 + x117 >= 1
 c233_neq116_117: - x116 - x117 >= -1
 c234_neq117_118: x117 + x118 >= 1
 c235_neq117_118: - x117 - x118 >= -1
 c236_neq118_119: x118 + x119 >= 1
 c237_neq118_119: - x118 - x119 >= -1
 c238_neq119_120: x119 + x120 >= 1
 c239_neq119_120: - x119 - x120 >= -1
 c240_neq120_121: x120 + x121 >= 1
 c241_neq120_121: - x120 - x121 >= -1
 c242_neq121_122: x121 + x122 >= 1
 c243_neq121_122: - x121 - x122 >= -1
 c244_neq122_123: x122 + x123 >= 1
 c245_neq122_123: - x122 - x123 >= -1
 c246_neq123_124: x123 + x124 >= 1
 c247_neq123_124: - x123 - x124 >= -1
 c248_neq124_125: x124 + x125 >= 1
 c249_neq124_125: - x124 - x125 >= -1
 c250_neq125_126: x125 + x126 >= 1
 c251_neq125_126: - x125 - x126 >= -1
 c252_neq126_127: x126 + x127 >= 1
 c253_neq126_127: - x126 - x127 >= -1
 c254_neq127_128: x127 + x128 >= 1
 c255_neq127_128: - x127 - x128 >= -1
 c256_neq128_129: x128 + x129 >= 1
 c257_neq128_129: - x128 - x129 >= -1
 c258_neq129_130: x129 + x130 >= 1
 c259_neq129_130: - x129 - x130 >= -1
 c260_neq130_131: x130 + x131 >= 1
 c261_neq130_131: - x130 - x131 >= -1
 c262_neq131_132: x131 + x132 >= 1
 c263_neq131_132: - x131 - x132 >= -1
 c264_neq132_133: x132 + x133 >= 1
 c265_neq132_133: - x132 - x133 >= -1
 c266_neq133_134: x133 + x134 >= 1
 c267_neq133_134: - x133 - x134 >= -1
 c268_neq134_135: x134 + x135 >= 1
 c269_neq134_135: - x134 - x135 >= -1
 c270_neq135_136: x135 + x136 >= 1
 c271_neq135_136: - x135 - x136 >= -1
 c272_neq136_137: x136 + x137 >= 1
 c273_neq136_137: - x136 - x137 >= -1
 c274_neq137_138: x137 + x138 >= 1
 c275_neq137_138: - x137 - x138 >= -1
 c276_neq138_139: x138 + x139 >= 1
 c277_neq138_139: - x138 - x139 >= -1
 c278_neq139_140: x139 + x140 >= 1
 c279_neq139_140: - x139 - x140 >= -1
 c280_neq140_141: x140 + x141 >= 1
 c281_neq140_141: - x140 - x141 >= -1
 c282_neq141_142: x141 + x142 >= 1
 c283_neq141_142: - x141 - x142 >= -1
 c284_neq142_143: x142 + x143 >= 1
 c285_neq142_143: - x142 - x143 >= -1
 c286_neq143_144: x143 + x144 >= 1
 c287_neq143_144: - x143 - x144 >= -1
 c288_neq144_145: x144 + x145 >= 1
 c289_neq144_145: - x144 - x145 >= -1
 c290_neq145_146: x145 + x146 >= 1
 c291_neq145_146: - x145 - x146 >= -1
 c292_neq146_147: x146 + x147 >= 1
 c293_neq146_147: - x146 - x147 >= -1
 c294_neq147_148: x147 + x148 >= 1
 c295_neq147_148: - x147 - x148 >= -1
 c296_neq148_149: x148 + x149 >= 1
 c297_neq148_149: - x148 - x149 >= -1
 c298_neq149_150: x149 + x150 >= 1
 c299_neq149_150: - x149 - x150 >= -1
 c300_neq150_151: x150 + x151 >= 1
 c301_neq150_151: - x150 - x151 >= -1
 c302_neq151_152: x151 + x152 >= 1
 c303_neq151_152: - x151 - x152 >= -1
 c304_neq152_153: x152 + x153 >= 1
 c305_neq152_153: - x152 - x153 >= -1
 c306_neq153_154: x153 + x154 >= 1
 c307_neq153_154: - x153 - x154 >= -1
 c308_neq154_155: x154 + x155 >= 1
 c309_neq154_155: - x154 - x155 >= -1
 c310_neq155_156: x155 + x156 >= 1
 c311_neq155_156: - x155 - x156 >= -1
 c312_neq156_157: x156 + x157 >= 1
 c313_neq156_157: - x156 - x157 >= -1
 c314_neq157_158: x157 + x158 >= 1
 c315_neq157_158: - x157 - x158 >= -1
 c316_neq158_159: x158 + x159 >= 1
 c317_neq158_159: - x158 - x159 >= -1
 c318_neq159_160: x159 + x160 >= 1
 c319_neq159_160: - x159 - x160 >= -1
 c320_neq160_161: x160 + x161 >= 1
 c321_neq160_161: - x160 - x161 >= -1
 c322_neq161_162: x161 + x162 >= 1
 c323_neq161_162: - x161 - x162 >= -1
 c324_neq162_163: x162 + x163 >= 1
 c325_neq162_163: - x162 - x163 >= -1
 c326_neq163_164: x163 + x164 >= 1
 c327_neq163_164: - x163 - x164 >= -1
 c328_neq164_165: x164 + x165 >= 1
 c329_neq164_165: - x164 - x165 >= -1
 c330_neq165_166: x165 + x166 >= 1
 c331_neq165_166: - x165 - x166 >= -1
 c332_neq166_167: x166 + x167 >= 1
 c333_neq166_167: - x166 - x167 >= -1
 c334_neq167_168: x167 + x168 >= 1
 c335_neq167_168: - x167 - x168 >= -1
 c336_neq168_169: x168 + x169 >= 1
 c337_neq168_169: - x168 - x169 >= -1
 c338_neq169_170: x169 + x170 >= 1
 c339_neq169_170: - x169 - x170 >= -1
 c340_neq170_171: x170 + x171 >= 1
 c341_neq170_171: - x170 - x171 >= -1
 c342_neq171_172: x171 + x172 >= 1
 c343_neq171_172: - x171 - x172 >= -1
 c344_neq172_173: x172 + x173 >= 1
 c345_neq172_173: - x172 - x173 >= -1
 c346_neq173_174: x173 + x174 >= 1
 c347_neq173_174: - x173 - x174 >= -1
 c348_neq174_175: x174 + x175 >= 1
 c349_neq174_175: - x174 - x175 >= -1
 c350_neq175_176: x175 + x176 >= 1
 c351_neq175_176: - x175 - x176 >= -1
 c352_neq176_177: x176 + x177 >= 1
 c353_neq176_177: - x176 - x177 >= -1
 c354_neq177_178: x177 + x178 >= 1
 c355_neq177_178: - x177 - x178 >= -1
 c356_neq178_179: x178 + x179 >= 1
 c357_neq178_179: - x178 - x179 >= -1
 c358_neq179_180: x179 + x180 >= 1
 c359_neq179_180: - x179 - x180 >= -1
 c360_neq180_181: x180 + x181 >= 1
 c361_neq180_181: - x180 - x181 >= -1
 c362_neq181_182: x181 + x182 >= 1
 c363_neq181_182: - x181 - x182 >= -1
 c364_neq182_183: x182 + x183 >= 1
 c365_neq182_183: - x182 - x183 >= -1
 c366_neq183_184: x183 + x184 >= 1
 c367_neq183_184: - x183 - x184 >= -1
 c368_neq184_185: x184 + x185 >= 1
 c369_neq184_185: - x184 - x185 >= -1
 c370_neq185_186: x185 + x186 >= 1
 c371_neq185_186: - x185 - x186 >= -1
 c372_neq186_187: x186 + x187 >= 1
 c373_neq186_187: - x186 - x187 >= -1
 c374_neq187_188: x187 + x188 >= 1
 c375_neq187_188: - x187 - x188 >= -1
 c376_neq188_189: x188 + x189 >= 1
 c377_neq188_189: - x188 - x189 >= -1
 c378_neq189_190: x189 + x190 >= 1
 c379_neq189_190: - x189 - x190 >= -1
 c380_neq190_191: x190 + x191 >= 1
 c381_neq190_191: - x190 - x191 >= -1
 c382_neq191_192: x191 + x192 >= 1
 c383_neq191_192: - x191 - x192 >= -1
 c384_neq192_193: x192 + x193 >= 1
 c385_neq192_193: - x192 - x193 >= -1
 c386_neq193_194: x193 + x194 >= 1
 c387_neq193_194: - x193 - x194 >= -1
 c388_neq194_195: x194 + x195 >= 1
 c389_neq194_195: - x194 - x195 >= -1
 c390_neq195_196: x195 + x196 >= 1
 c391_neq195_196: - x195 - x196 >= -1
 c392_neq196_197: x196 + x197 >= 1
 c393_neq196_197: - x196 - x197 >= -1
 c394_neq197_198: x197 + x198 >= 1
 c395_neq197_198: - x197 - x198 >= -1
 c396_neq198_199: x198 + x199 >= 1
 c397_neq198_199: - x198 - x199 >= -1
 c398_neq199_200: x199 + x200 >= 1
 c399_neq199_200: - x199 - x200 >= -1
 c400_neq200_201: x200 + x201 >= 1
 c401_neq200_201: - x200 - x201 >= -1
 c402_neq201_202: x201 + x202 >= 1
 c403_neq201_202: - x201 - x202 >= -1
 c404_neq202_203: x202 + x203 >= 1
 c405_neq202_203: - x202 - x203 >= -1
 c406_neq203_204: x203 + x204 >= 1
 c407_neq203_204: - x203 - x204 >= -1
 c408_neq204_205: x204 + x205 >= 1
 c409_neq204_205: - x204 - x205 >= -1
 c410_neq205_206: x205 + x206 >= 1
 c411_neq205_206: - x205 - x206 >= -1
 c412_neq206_207: x206 + x207 >= 1
 c413_neq206_207: - x206 - x207 >= -1
 c414_neq207_208: x207 + x208 >= 1
 c415_neq207_208: - x207 - x208 >= -1
 c416_neq208_209: x208 + x209 >= 1
 c417_neq208_209: - x208 - x209 >= -1
 c418_neq209_210: x209 + x210 >= 1
 c419_neq209_210: - x209 - x210 >= -1
 c420_neq210_211: x210 + x211 >= 1
 c421_neq210_211: - x210 - x211 >= -1
 c422_neq211_212: x211 + x212 >= 1
 c423_neq211_212: - x211 - x212 >= -1
 c424_neq212_213: x212 + x213 >= 1
 c425_neq212_213: - x212 - x213 >= -1
 c426_neq213_214: x213 + x214 >= 1
 c427_neq213_214: - x213 - x214 >= -1
 c428_neq214_215: x214 + x215 >= 1
 c429_neq214_215: - x214 - x215 >= -1
 c430_neq215_216: x215 + x216 >= 1
 c431_neq215_216: - x215 - x216 >= -1
 c432_neq216_217: x216 + x217 >= 1
 c433_neq216_217: - x216 - x217 >= -1
 c434_neq217_218: x217 + x218 >= 1
 c435_neq217_218: - x217 - x218 >= -1
 c436_neq218_219: x218 + x219 >= 1
 c437_neq218_219: - x218 - x219 >= -1
 c438_neq219_220: x219 + x220 >= 1
 c439_neq219_220: - x219 - x220 >= -1
 c440_neq220_221: x220 + x221 >= 1
 c441_neq220_221: - x220 - x221 >= -1
 c442_neq221_222: x221 + x222 >= 1
 c443_neq221_222: - x221 - x222 >= -1
 c444_neq222_223: x222 + x223 >= 1
 c445_neq222_223: - x222 - x223 >= -1
 c446_neq223_224: x223 + x224 >= 1
 c447_neq223_224: - x223 - x224 >= -1
 c448_neq224_225: x224 + x225 >= 1
 c449_neq224_225: - x224 - x225 >= -1
 c450_neq225_226: x225 + x226 >= 1
 c451_neq225_226: - x225 - x226 >= -1
 c452_neq226_227: x226 + x227 >= 1
 c453_neq226_227: - x226 - x227 >= -1
 c454_neq227_228: x227 + x228 >= 1
 c455_neq227_228: - x227 - x228 >= -1
 c456_neq228_229: x228 + x229 >= 1
 c457_neq228_229: - x228 - x229 >= -1
 c458_neq229_230: x229 + x230 >= 1
 c459_neq229_230: - x229 - x230 >= -1
 c460_neq230_231: x230 + x231 >= 1
 c461_neq230_231: - x230 - x231 >= -1
 c462_neq231_232: x231 + x232 >= 1
 c463_neq231_232: - x231 - x232 >= -1
 c464_neq232_233: x232 + x233 >= 1
 c465_neq232_233: - x232 - x233 >= -1
 c466_neq233_234: x233 + x234 >= 1
 c467_neq233_234: - x233 - x234 >= -1
 c468_neq234_235: x234 + x235 >= 1
 c469_neq234_235: - x234 - x235 >= -1
 c470_neq235_236: x235 + x236 >= 1
 c471_neq235_236: - x235 - x236 >= -1
 c472_neq236_237: x236 + x237 >= 1
 c473_neq236_237: - x236 - x237 >= -1
 c474_neq237_238: x237 + x238 >= 1
 c475_neq237_238: - x237 - x238 >= -1
 c476_neq238_239: x238 + x239 >= 1
 c477_neq238_239: - x238 - x239 >= -1
 c478_neq239_240: x239 + x240 >= 1
 c479_neq239_240: - x239 - x240 >= -1
 c480_neq240_241: x240 + x241 >= 1
 c481_neq240_241: - x240 - x241 >= -1
 c482_neq241_242: x241 + x242 >= 1
 c483_neq241_242: - x241 - x242 >= -1
 c484_neq242_243: x242 + x243 >= 1
 c485_neq242_243: - x242 - x243 >= -1
 c486_neq243_244: x243 + x244 >= 1
 c487_neq243_244: - x243 - x244 >= -1
 c488_neq244_245: x244 + x245 >= 1
 c489_neq244_245: - x244 - x245 >= -1
 c490_neq245_246: x245 + x246 >= 1
 c491_neq245_246: - x245 - x246 >= -1
 c492_neq246_247: x246 + x247 >= 1
 c493_neq246_247: - x246 - x247 >= -1
 c494_neq247_248: x247 + x248 >= 1
 c495_neq247_248: - x247 - x248 >= -1
 c496_neq248_249: x248 + x249 >= 1
 c497_neq248_249: - x248 - x249 >= -1
 c498_neq249_250: x249 + x250 >= 1
 c499_neq249_250: - x249 - x250 >= -1
 c500_neq250_251: x250 + x251 >= 1
 c501_neq250_251: - x250 - x251 >= -1
 c502_neq251_252: x251 + x252 >= 1
 c503_neq251_252: - x251 - x252 >= -1
 c504_neq252_253: x252 + x253 >= 1
 c505_neq252_253: - x252 - x253 >= -1
 c506_neq253_254: x253 + x254 >= 1
 c507_neq253_254: - x253 - x254 >= -1
 c508_neq254_255: x254 + x255 >= 1
 c509_neq254_255: - x254 - x255 >= -1
 c510_neq255_256: x255 + x256 >= 1
 c511_neq255_256: - x255 - x256 >= -1
 c512_neq256_257: x256 + x257 >= 1
 c513_neq256_257: - x256 - x257 >= -1
 c514_neq257_258: x257 + x258 >= 1
 c515_neq257_258: - x257 - x258 >= -1
 c516_neq258_259: x258 + x259 >= 1
 c517_neq258_259: - x258 - x259 >= -1
 c518_neq259_260: x259 + x260 >= 1
 c519_neq259_260: - x259 - x260 >= -1
 c520_neq260_261: x260 + x261 >= 1
 c521_neq260_261: - x260 - x261 >= -1
 c522_neq261_262: x261 + x262 >= 1
 c523_neq261_262: - x261 - x262 >= -1
 c524_neq262_263: x262 + x263 >= 1
 c525_neq262_263: - x262 - x263 >= -1
 c526_neq263_264: x263 + x264 >= 1
 c527_neq263_264: - x263 - x264 >= -1
 c528_neq264_265: x264 + x265 >= 1
 c529_neq264_265: - x264 - x265 >= -1
 c530_neq265_266: x265 + x266 >= 1
 c531_neq265_266: - x265 - x266 >= -1
 c532_neq266_267: x266 + x267 >= 1
 c533_neq266_267: - x266 - x267 >= -1
 c534_neq267_268: x267 + x268 >= 1
 c535_neq267_268: - x267 - x268 >= -1
 c536_neq268_269: x268 + x269 >= 1
 c537_neq268_269: - x268 - x269 >= -1
 c538_neq269_270: x269 + x270 >= 1
 c539_neq269_270: - x269 - x270 >= -1
 c540_neq270_271: x270 + x271 >= 1
 c541_neq270_271: - x270 - x271 >= -1
 c542_neq271_272: x271 + x272 >= 1
 c543_neq271_272: - x271 - x272 >= -1
 c544_neq272_273: x272 + x273 >= 1
 c545_neq272_273: - x272 - x273 >= -1
 c546_neq273_274: x273 + x274 >= 1
 c547_neq273_274: - x273 - x274 >= -1
 c548_neq274_275: x274 + x275 >= 1
 c549_neq274_275: - x274 - x275 >= -1
 c550_neq275_276: x275 + x276 >= 1
 c551_neq275_276: - x275 - x276 >= -1
 c552_neq276_277: x276 + x277 >= 1
 c553_neq276_277: - x276 - x277 >= -1
 c554_neq277_278: x277 + x278 >= 1
 c555_neq277_278: - x277 - x278 >= -1
 c556_neq278_279: x278 + x279 >= 1
 c557_neq278_279: - x278 - x279 >= -1
 c558_neq279_280: x279 + x280 >= 1
 c559_neq279_280: - x279 - x280 >= -1
 c560_neq280_281: x280 + x281 >= 1
 c561_neq280_281: - x280 - x281 >= -1
 c562_neq281_282: x281 + x282 >= 1
 c563_neq281_282: - x281 - x282 >= -1
 c564_neq282_283: x282 + x283 >= 1
 c565_neq282_283: - x282 - x283 >= -1
 c566_neq283_284: x283 + x284 >= 1
 c567_neq283_284: - x283 - x284 >= -1
 c568_neq284_285: x284 + x285 >= 1
 c569_neq284_285: - x284 - x285 >= -1
 c570_neq285_286: x285 + x286 >= 1
 c571_neq285_286: - x285 - x286 >= -1
 c572_neq286_287: x286 + x287 >= 1
 c573_neq286_287: - x286 - x287 >= -1
 c574_neq287_288: x287 + x288 >= 1
 c575_neq287_288: - x287 - x288 >= -1
 c576_neq288_289: x288 + x289 >= 1
 c577_neq288_289: - x288 - x289 >= -1
 c578_neq289_290: x289 + x290 >= 1
 c579_neq289_290: - x289 - x290 >= -1
 c580_neq290_291: x290 + x291 >= 1
 c581_neq290_291: - x290 - x291 >= -1
 c582_neq291_292: x291 + x292 >= 1
 c583_neq291_292: - x291 - x292 >= -1
 c584_neq292_293: x292 + x293 >= 1
 c585_neq292_293: - x292 - x293 >= -1
 c586_neq293_294: x293 + x294 >= 1
 c587_neq293_294: - x293 - x294 >= -1
 c588_neq294_295: x294 + x295 >= 1
 c589_neq294_295: - x294 - x295 >= -1
 c590_neq295_296: x295 + x296 >= 1
 c591_neq295_296: - x295 - x296 >= -1
 c592_neq296_297: x296 + x297 >= 1
 c593_neq296_297: - x296 - x297 >= -1
 c594_neq297_298: x297 + x298 >= 1
 c595_neq297_298: - x297 - x298 >= -1
 c596_neq298_299: x298 + x299 >= 1
 c597_neq298_299: - x298 - x299 >= -1
 c598_neq299_300: x299 + x300 >= 1
 c599_neq299_300: - x299 - x300 >= -1
 c600_neq300_301: x300 + x301 >= 1
 c601_neq300_301: - x300 - x301 >= -1
 c602_neq301_302: x301 + x302 >= 1
 c603_neq301_302: - x301 - x302 >= -1
 c604_neq302_303: x302 + x303 >= 1
 c605_neq302_303: - x302 - x303 >= -1
 c606_neq303_304: x303 + x304 >= 1
 c607_neq303_304: - x303 - x304 >= -1
 c608_neq304_305: x304 + x305 >= 1
 c609_neq304_305: - x304 - x305 >= -1
 c610_neq305_306: x305 + x306 >= 1
 c611_neq305_306: - x305 - x306 >= -1
 c612_neq306_307: x306 + x307 >= 1
 c613_neq306_307: - x306 - x307 >= -1
 c614_neq307_308: x307 + x308 >= 1
 c615_neq307_308: - x307 - x308 >= -1
 c616_neq308_309: x308 + x309 >= 1
 c617_neq308_309: - x308 - x309 >= -1
 c618_neq309_310: x309 + x310 >= 1
 c619_neq309_310: - x309 - x310 >= -1
 c620_neq310_311: x310 + x311 >= 1
 c621_neq310_311: - x310 - x311 >= -1
 c622_neq311_312: x311 + x312 >= 1
 c623_neq311_312: - x311 - x312 >= -1
 c624_neq312_313: x312 + x313 >= 1
 c625_neq312_313: - x312 - x313 >= -1
 c626_neq313_314: x313 + x314 >= 1
 c627_neq313_314: - x313 - x314 >= -1
 c628_neq314_315: x314 + x315 >= 1
 c629_neq314_315: - x314 - x315 >= -1
 c630_neq315_316: x315 + x316 >= 1
 c631_neq315_316: - x315 - x316 >= -1
 c632_neq316_317: x316 + x317 >= 1
 c633_neq316_317: - x316 - x317 >= -1
 c634_neq317_318: x317 + x318 >= 1
 c635_neq317_318: - x317 - x318 >= -1
 c636_neq318_319: x318 + x319 >= 1
 c637_neq318_319: - x318 - x319 >= -1
 c638_neq319_320: x319 + x320 >= 1
 c639_neq319_320: - x319 - x320 >= -1
 c640_neq320_321: x320 + x321 >= 1
 c641_neq320_321: - x320 - x321 >= -1
 c642_neq321_322: x321 + x322 >= 1
 c643_neq321_322: - x321 - x322 >= -1
 c644_neq322_323: x322 + x323 >= 1
 c645_neq322_323: - x322 - x323 >= -1
 c646_neq323_324: x323 + x324 >= 1
 c647_neq323_324: - x323 - x324 >= -1
 c648_neq324_325: x324 + x325 >= 1
 c649_neq324_325: - x324 - x325 >= -1
 c650_neq325_326: x325 + x326 >= 1
 c651_neq325_326: - x325 - x326 >= -1
 c652_neq326_327: x326 + x327 >= 1
 c653_neq326_327: - x326 - x327 >= -1
 c654_neq327_328: x327 + x328 >= 1
 c655_neq327_328: - x327 - x328 >= -1
 c656_neq328_329: x328 + x329 >= 1
 c657_neq328_329: - x328 - x329 >= -1
 c658_neq329_330: x329 + x330 >= 1
 c659_neq329_330: - x329 - x330 >= -1
 c660_neq330_331: x330 + x331 >= 1
 c661_neq330_331: - x330 - x331 >= -1
 c662_neq331_332: x331 + x332 >= 1
 c663_neq331_332: - x331 - x332 >= -1
 c664_neq332_333: x332 + x333 >= 1
 c665_neq332_333: - x332 - x333 >= -1
 c666_neq333_334: x333 + x334 >= 1
 c667_neq333_334: - x333 - x334 >= -1
 c668_neq334_335: x334 + x335 >= 1
 c669_neq334_335: - x334 - x335 >= -1
 c670_neq335_336: x335 + x336 >= 1
 c671_neq335_336: - x335 - x336 >= -1
 c672_neq336_337: x336 + x337 >= 1
 c673_neq336_337: - x336 - x337 >= -1
 c674_neq337_338: x337 + x338 >= 1
 c675_neq337_338: - x337 - x338 >= -1
 c676_neq338_339: x338 + x339 >= 1
 c677_neq338_339: - x338 - x339 >= -1
 c678_neq339_340: x339 + x340 >= 1
 c679_neq339_340: - x339 - x340 >= -1
 c680_neq340_341: x340 + x341 >= 1
 c681_neq340_341: - x340 - x341 >= -1
 c682_neq341_342: x341 + x342 >= 1
 c683_neq341_342: - x341 - x342 >= -1
 c684_neq342_343: x342 + x343 >= 1
 c685_neq342_343: - x342 - x343 >= -1
 c686_neq343_344: x343 + x344 >= 1
 c687_neq343_344: - x343 - x344 >= -1
 c688_neq344_345: x344 + x345 >= 1
 c689_neq344_345: - x344 - x345 >= -1
 c690_neq345_346: x345 + x346 >= 1
 c691_neq345_346: - x345 - x346 >= -1
 c692_neq346_347: x346 + x347 >= 1
 c693_neq346_347: - x346 - x347 >= -1
 c694_neq347_348: x347 + x348 >= 1
 c695_neq347_348: - x347 - x348 >= -1
 c696_neq348_349: x348 + x349 >= 1
 c697_neq348_349: - x348 - x349 >= -1
 c698_neq349_350: x349 + x350 >= 1
 c699_neq349_350: - x349 - x350 >= -1
 c700_neq350_351: x350 + x351 >= 1
 c701_neq350_351: - x350 - x351 >= -1
 c702_neq351_352: x351 + x352 >= 1
 c703_neq351_352: - x351 - x352 >= -1
 c704_neq352_353: x352 + x353 >= 1
 c705_neq352_353: - x352 - x353 >= -1
 c706_neq353_354: x353 + x354 >= 1
 c707_neq353_354: - x353 - x354 >= -1
 c708_neq354_355: x354 + x355 >= 1
 c709_neq354_355: - x354 - x355 >= -1
 c710_neq355_356: x355 + x356 >= 1
 c711_neq355_356: - x355 - x356 >= -1
 c712_neq356_357: x356 + x357 >= 1
 c713_neq356_357: - x356 - x357 >= -1
 c714_neq357_358: x357 + x358 >= 1
 c715_neq357_358: - x357 - x358 >= -1
 c716_neq358_359: x358 + x359 >= 1
 c717_neq358_359: - x358 - x359 >= -1
 c718_neq359_360: x359 + x360 >= 1
 c719_neq359_360: - x359 - x360 >= -1
 c720_neq360_361: x360 + x361 >= 1
 c721_neq360_361: - x360 - x361 >= -1
 c722_neq361_362: x361 + x362 >= 1
 c723_neq361_362: - x361 - x362 >= -1
 c724_neq362_363: x362 + x363 >= 1
 c725_neq362_363: - x362 - x363 >= -1
 c726_neq363_364: x363 + x364 >= 1
 c727_neq363_364: - x363 - x364 >= -1
 c728_neq364_365: x364 + x365 >= 1
 c729_neq364_365: - x364 - x365 >= -1
 c730_neq365_366: x365 + x366 >= 1
 c731_neq365_366: - x365 - x366 >= -1
 c732_neq366_367: x366 + x367 >= 1
 c733_neq366_367: - x366 - x367 >= -1
 c734_neq367_368: x367 + x368 >= 1
 c735_neq367_368: - x367 - x368 >= -1
 c736_neq368_369: x368 + x369 >= 1
 c737_neq368_369: - x368 - x369 >= -1
 c738_neq369_370: x369 + x370 >= 1
 c739_neq369_370: - x369 - x370 >= -1
 c740_neq370_371: x370 + x371 >= 1
 c741_neq370_371: - x370 - x371 >= -1
 c742_neq371_372: x371 + x372 >= 1
 c743_neq371_372: - x371 - x372 >= -1
 c744_neq372_373: x372 + x373 >= 1
 c745_neq372_373: - x372 - x373 >= -1
 c746_neq373_374: x373 + x374 >= 1
 c747_neq373_374: - x373 - x374 >= -1
 c748_neq374_375: x374 + x375 >= 1
 c749_neq374_375: - x374 - x375 >= -1
 c750_neq375_376: x375 + x376 >= 1
 c751_neq375_376: - x375 - x376 >= -1
 c752_neq376_377: x376 + x377 >= 1
 c753_neq376_377: - x376 - x377 >= -1
 c754_neq377_378: x377 + x378 >= 1
 c755_neq377_378: - x377 - x378 >= -1
 c756_neq378_379: x378 + x379 >= 1
 c757_neq378_379: - x378 - x379 >= -1
 c758_neq379_380: x379 + x380 >= 1
 c759_neq379_380: - x379 - x380 >= -1
 c760_neq380_381: x380 + x381 >= 1
 c761_neq380_381: - x380 - x381 >= -1
 c762_neq381_382: x381 + x382 >= 1
 c763_neq381_382: - x381 - x382 >= -1
 c764_neq382_383: x382 + x383 >= 1
 c765_neq382_383: - x382 - x383 >= -1
 c766_neq383_384: x383 + x384 >= 1
 c767_neq383_384: - x383 - x384 >= -1
 c768_neq384_385: x384 + x385 >= 1
 c769_neq384_385: - x384 - x385 >= -1
 c770_neq385_386: x385 + x386 >= 1
 c771_neq385_386: - x385 - x386 >= -1
 c772_neq386_387: x386 + x387 >= 1
 c773_neq386_387: - x386 - x387 >= -1
 c774_neq387_388: x387 + x388 >= 1
 c775_neq387_388: - x387 - x388 >= -1
 c776_neq388_389: x388 + x389 >= 1
 c777_neq388_389: - x388 - x389 >= -1
 c778_neq389_390: x389 + x390 >= 1
 c779_neq389_390: - x389 - x390 >= -1
 c780_neq390_391: x390 + x391 >= 1
 c781_neq390_391: - x390 - x391 >= -1
 c782_neq391_392: x391 + x392 >= 1
 c783_neq391_392: - x391 - x392 >= -1
 c784_neq392_393: x392 + x393 >= 1
 c785_neq392_393: - x392 - x393 >= -1
 c786_neq393_394: x393 + x394 >= 1
 c787_neq393_394: - x393 - x394 >= -1
 c788_neq394_395: x394 + x395 >= 1
 c789_neq394_395: - x394 - x395 >= -1
 c790_neq395_396: x395 + x396 >= 1
 c791_neq395_396: - x395 - x396 >= -1
 c792_neq396_397: x396 + x397 >= 1
 c793_neq396_397: - x396 - x397 >= -1
 c794_neq397_398: x397 + x398 >= 1
 c795_neq397_398: - x397 - x398 >= -1
 c796_neq398_399: x398 + x399 >= 1
 c797_neq398_399: - x398 - x399 >= -1
 c798_neq399_400: x399 + x400 >= 1
 c799_neq399_400: - x399 - x400 >= -1
 c800_neq400_401: x400 + x401 >= 1
 c801_neq400_401: - x400 - x401 >= -1
 c802_neq401_402: x401 + x402 >= 1
 c803_neq401_402: - x401 - x402 >= -1
 c804_neq402_403: x402 + x403 >= 1
 c805_neq402_403: - x402 - x403 >= -1
 c806_neq403_404: x403 + x404 >= 1
 c807_neq403_404: - x403 - x404 >= -1
 c808_neq404_405: x404 + x405 >= 1
 c809_neq404_405: - x404 - x405 >= -1
 c810_neq405_406: x405 + x406 >= 1
 c811_neq405_406: - x405 - x406 >= -1
 c812_neq406_407: x406 + x407 >= 1
 c813_neq406_407: - x406 - x407 >= -1
 c814_neq407_408: x407 + x408 >= 1
 c815_neq407_408: - x407 - x408 >= -1
 c816_neq408_409: x408 + x409 >= 1
 c817_neq408_409: - x408 - x409 >= -1
 c818_neq409_410: x409 + x410 >= 1
 c819_neq409_410: - x409 - x410 >= -1
 c820_neq410_411: x410 + x411 >= 1
 c821_neq410_411: - x410 - x411 >= -1
 c822_neq411_412: x411 + x412 >= 1
 c823_neq411_412: - x411 - x412 >= -1
 c824_neq412_413: x412 + x413 >= 1
 c825_neq412_413: - x412 - x413 >= -1
 c826_neq413_414: x413 + x414 >= 1
 c827_neq413_414: - x413 - x414 >= -1
 c828_neq414_415: x414 + x415 >= 1
 c829_neq414_415: - x414 - x415 >= -1
 c830_neq415_416: x415 + x416 >= 1
 c831_neq415_416: - x415 - x416 >= -1
 c832_neq416_417: x416 + x417 >= 1
 c833_neq416_417: - x416 - x417 >= -1
 c834_neq417_418: x417 + x418 >= 1
 c835_neq417_418: - x417 - x418 >= -1
 c836_neq418_419: x418 + x419 >= 1
 c837_neq418_419: - x418 - x419 >= -1
 c838_neq419_420: x419 + x420 >= 1
 c839_neq419_420: - x419 - x420 >= -1
 c840_neq420_421: x420 + x421 >= 1
 c841_neq420_421: - x420 - x421 >= -1
 c842_neq421_422: x421 + x422 >= 1
 c843_neq421_422: - x421 - x422 >= -1
 c844_neq422_423: x422 + x423 >= 1
 c845_neq422_423: - x422 - x423 >= -1
 c846_neq423_424: x423 + x424 >= 1
 c847_neq423_424: - x423 - x424 >= -1
 c848_neq424_425: x424 + x425 >= 1
 c849_neq424_425: - x424 - x425 >= -1
 c850_neq425_426: x425 + x426 >= 1
 c851_neq425_426: - x425 - x426 >= -1
 c852_neq426_427: x426 + x427 >= 1
 c853_neq426_427: - x426 - x427 >= -1
 c854_neq427_428: x427 + x428 >= 1
 c855_neq427_428: - x427 - x428 >= -1
 c856_neq428_429: x428 + x429 >= 1
 c857_neq428_429: - x428 - x429 >= -1
 c858_neq429_430: x429 + x430 >= 1
 c859_neq429_430: - x429 - x430 >= -1
 c860_neq430_431: x430 + x431 >= 1
 c861_neq430_431: - x430 - x431 >= -1
 c862_neq431_432: x431 + x432 >= 1
 c863_neq431_432: - x431 - x432 >= -1
 c864_neq432_433: x432 + x433 >= 1
 c865_neq432_433: - x432 - x433 >= -1
 c866_neq433_434: x433 + x434 >= 1
 c867_neq433_434: - x433 - x434 >= -1
 c868_neq434_435: x434 + x435 >= 1
 c869_neq434_435: - x434 - x435 >= -1
 c870_neq435_436: x435 + x436 >= 1
 c871_neq435_436: - x435 - x436 >= -1
 c872_neq436_437: x436 + x437 >= 1
 c873_neq436_437: - x436 - x437 >= -1
 c874_neq437_438: x437 + x438 >= 1
 c875_neq437_438: - x437 - x438 >= -1
 c876_neq438_439: x438 + x439 >= 1
 c877_neq438_439: - x438 - x439 >= -1
 c878_neq439_440: x439 + x440 >= 1
 c879_neq439_440: - x439 - x440 >= -1
 c880_neq440_441: x440 + x441 >= 1
 c881_neq440_441: - x440 - x441 >= -1
 c882_neq441_442: x441 + x442 >= 1
 c883_neq441_442: - x441 - x442 >= -1
 c884_neq442_443: x442 + x443 >= 1
 c885_neq442_443: - x442 - x443 >= -1
 c886_neq443_444: x443 + x444 >= 1
 c887_neq443_444: - x443 - x444 >= -1
 c888_neq444_445: x444 + x445 >= 1
 c889_neq444_445: - x444 - x445 >= -1
 c890_neq445_446: x445 + x446 >= 1
 c891_neq445_446: - x445 - x446 >= -1
 c892_neq446_447: x446 + x447 >= 1
 c893_neq446_447: - x446 - x447 >= -1
 c894_neq447_448: x447 + x448 >= 1
 c895_neq447_448: - x447 - x448 >= -1
 c896_neq448_449: x448 + x449 >= 1
 c897_neq448_449: - x448 - x449 >= -1
 c898_neq449_450: x449 + x450 >= 1
 c899_neq449_450: - x449 - x450 >= -1
 c900_neq450_451: x450 + x451 >= 1
 c901_neq450_451: - x450 - x451 >= -1
 c902_neq451_452: x451 + x452 >= 1
 c903_neq451_452: - x451 - x452 >= -1
 c904_neq452_453: x452 + x453 >= 1
 c905_neq452_453: - x452 - x453 >= -1
 c906_neq453_454: x453 + x454 >= 1
 c907_neq453_454: - x453 - x454 >= -1
 c908_neq454_455: x454 + x455 >= 1
 c909_neq454_455: - x454 - x455 >= -1
 c910_neq455_456: x455 + x456 >= 1
 c911_neq455_456: - x455 - x456 >= -1
 c912_neq456_457: x456 + x457 >= 1
 c913_neq456_457: - x456 - x457 >= -1
 c914_neq457_458: x457 + x458 >= 1
 c915_neq457_458: - x457 - x458 >= -1
 c916_neq458_459: x458 + x459 >= 1
 c917_neq458_459: - x458 - x459 >= -1
 c918_neq459_460: x459 + x460 >= 1
 c919_neq459_460: - x459 - x460 >= -1
 c920_neq460_461: x460 + x461 >= 1
 c921_neq460_461: - x460 - x461 >= -1
 c922_neq461_462: x461 + x462 >= 1
 c923_neq461_462: - x461 - x462 >= -1
 c924_neq462_463: x462 + x463 >= 1
 c925_neq462_463: - x462 - x463 >= -1
 c926_neq463_464: x463 + x464 >= 1
 c927_neq463_464: - x463 - x464 >= -1
 c928_neq464_465: x464 + x465 >= 1
 c929_neq464_465: - x464 - x465 >= -1
 c930_neq465_466: x465 + x466 >= 1
 c931_neq465_466: - x465 - x466 >= -1
 c932_neq466_467: x466 + x467 >= 1
 c933_neq466_467: - x466 - x467 >= -1
 c934_neq467_468: x467 + x468 >= 1
 c935_neq467_468: - x467 - x468 >= -1
 c936_neq468_469: x468 + x469 >= 1
 c937_neq468_469: - x468 - x469 >= -1
 c938_neq469_470: x469 + x470 >= 1
 c939_neq469_470: - x469 - x470 >= -1
 c940_neq470_471: x470 + x471 >= 1
 c941_neq470_471: - x470 - x471 >= -1
 c942_neq471_472: x471 + x472 >= 1
 c943_neq471_472: - x471 - x472 >= -1
 c944_neq472_473: x472 + x473 >= 1
 c945_neq472_473: - x472 - x473 >= -1
 c946_neq473_474: x473 + x474 >= 1
 c947_neq473_474: - x473 - x474 >= -1
 c948_neq474_475: x474 + x475 >= 1
 c949_neq474_475: - x474 - x475 >= -1
 c950_neq475_476: x475 + x476 >= 1
 c951_neq475_476: - x475 - x476 >= -1
 c952_neq476_477: x476 + x477 >= 1
 c953_neq476_477: - x476 - x477 >= -1
 c954_neq477_478: x477 + x478 >= 1
 c955_neq477_478: - x477 - x478 >= -1
 c956_neq478_479: x478 + x479 >= 1
 c957_neq478_479: - x478 - x479 >= -1
 c958_neq479_480: x479 + x480 >= 1
 c959_neq479_480: - x479 - x480 >= -1
 c960_neq480_481: x480 + x481 >= 1
 c961_neq480_481: - x480 - x481 >= -1
 c962_neq481_482: x481 + x482 >= 1
 c963_neq481_482: - x481 - x482 >= -1
 c964_neq482_483: x482 + x483 >= 1
 c965_neq482_483: - x482 - x483 >= -1
 c966_neq483_484: x483 + x484 >= 1
 c967_neq483_484: - x483 - x484 >= -1
 c968_neq484_485: x484 + x485 >= 1
 c969_neq484_485: - x484 - x485 >= -1
 c970_neq485_486: x485 + x486 >= 1
 c971_neq485_486: - x485 - x486 >= -1
 c972_neq486_487: x486 + x487 >= 1
 c973_neq486_487: - x486 - x487 >= -1
 c974_neq487_488: x487 + x488 >= 1
 c975_neq487_488: - x487 - x488 >= -1
 c976_neq488_489: x488 + x489 >= 1
 c977_neq488_489: - x488 - x489 >= -1
 c978_neq489_490: x489 + x490 >= 1
 c979_neq489_490: - x489 - x490 >= -1
 c980_neq490_491: x490 + x491 >= 1
 c981_neq490_491: - x490 - x491 >= -1
 c982_neq491_492: x491 + x492 >= 1
 c983_neq491_492: - x491 - x492 >= -1
 c984_neq492_493: x492 + x493 >= 1
 c985_neq492_493: - x492 - x493 >= -1
 c986_neq493_494: x493 + x494 >= 1
 c987_neq493_494: - x493 - x494 >= -1
 c988_neq494_495: x494 + x495 >= 1
 c989_neq494_495: - x494 - x495 >= -1
 c990_neq495_496: x495 + x496 >= 1
 c991_neq495_496: - x495 - x496 >= -1
 c992_neq496_497: x496 + x497 >= 1
 c993_neq496_497: - x496 - x497 >= -1
 c994_neq497_498: x497 + x498 >= 1
 c995_neq497_498: - x497 - x498 >= -1
 c996_neq498_499: x498 + x499 >= 1
 c997_neq498_499: - x498 - x499 >= -1
 c998_neq499_500: x499 + x500 >= 1
 c999_neq499_500: - x499 - x500 >= -1
 c1000_neq500_501: x500 + x501 >= 1
 c1001_neq500_501: - x500 - x501 >= -1
 c1002_neq501_502: x501 + x502 >= 1
 c1003_neq501_502: - x501 - x502 >= -1
 c1004_neq502_503: x502 + x503 >= 1
 c1005_neq502_503: - x502 - x503 >= -1
 c1006_neq503_504: x503 + x504 >= 1
 c1007_neq503_504: - x503 - x504 >= -1
 c1008_neq504_505: x504 + x505 >= 1
 c1009_neq504_505: - x504 - x505 >= -1
 c1010_neq505_506: x505 + x506 >= 1
 c1011_neq505_506: - x505 - x506 >= -1
 c1012_neq506_507: x506 + x507 >= 1
 c1013_neq506_507: - x506 - x507 >= -1
 c1014_neq507_508: x507 + x508 >= 1
 c1015_neq507_508: - x507 - x508 >= -1
 c1016_neq508_509: x508 + x509 >= 1
 c1017_neq508_509: - x508 - x509 >= -1
 c1018_neq509_510: x509 + x510 >= 1
 c1019_neq509_510: - x509 - x510 >= -1
 c1020_neq510_511: x510 + x511 >= 1
 c1021_neq510_511: - x510 - x511 >= -1
 c1022_neq511_512: x511 + x512 >= 1
 c1023_neq511_512: - x511 - x512 >= -1
 c1024_neq512_513: x512 + x513 >= 1
 c1025_neq512_513: - x512 - x513 >= -1
 c1026_neq513_514: x513 + x514 >= 1
 c1027_neq513_514: - x513 - x514 >= -1
 c1028_neq514_515: x514 + x515 >= 1
 c1029_neq514_515: - x514 - x515 >= -1
 c1030_neq515_516: x515 + x516 >= 1
 c1031_neq515_516: - x515 - x516 >= -1
 c1032_neq516_517: x516 + x517 >= 1
 c1033_neq516_517: - x516 - x517 >= -1
 c1034_neq517_518: x517 + x518 >= 1
 c1035_neq517_518: - x517 - x518 >= -1
 c1036_neq518_519: x518 + x519 >= 1
 c1037_neq518_519: - x518 - x519 >= -1
 c1038_neq519_520: x519 + x520 >= 1
 c1039_neq519_520: - x519 - x520 >= -1
 c1040_neq520_521: x520 + x521 >= 1
 c1041_neq520_521: - x520 - x521 >= -1
 c1042_neq521_522: x521 + x522 >= 1
 c1043_neq521_522: - x521 - x522 >= -1
 c1044_neq522_523: x522 + x523 >= 1
 c1045_neq522_523: - x522 - x523 >= -1
 c1046_neq523_524: x523 + x524 >= 1
 c1047_neq523_524: - x523 - x524 >= -1
 c1048_neq524_525: x524 + x525 >= 1
 c1049_neq524_525: - x524 - x525 >= -1
 c1050_neq525_526: x525 + x526 >= 1
 c1051_neq525_526: - x525 - x526 >= -1
 c1052_neq526_527: x526 + x527 >= 1
 c1053_neq526_527: - x526 - x527 >= -1
 c1054_neq527_528: x527 + x528 >= 1
 c1055_neq527_528: - x527 - x528 >= -1
 c1056_neq528_529: x528 + x529 >= 1
 c1057_neq528_529: - x528 - x529 >= -1
 c1058_neq529_530: x529 + x530 >= 1
 c1059_neq529_530: - x529 - x530 >= -1
 c1060_neq530_531: x530 + x531 >= 1
 c1061_neq530_531: - x530 - x531 >= -1
 c1062_neq531_532: x531 + x532 >= 1
 c1063_neq531_532: - x531 - x532 >= -1
 c1064_neq532_533: x532 + x533 >= 1
 c1065_neq532_533: - x532 - x533 >= -1
 c1066_neq533_534: x533 + x534 >= 1
 c1067_neq533_534: - x533 - x534 >= -1
 c1068_neq534_535: x534 + x535 >= 1
 c1069_neq534_535: - x534 - x535 >= -1
 c1070_neq535_536: x535 + x536 >= 1
 c1071_neq535_536: - x535 - x536 >= -1
 c1072_neq536_537: x536 + x537 >= 1
 c1073_neq536_537: - x536 - x537 >= -1
 c1074_neq537_538: x537 + x538 >= 1
 c1075_neq537_538: - x537 - x538 >= -1
 c1076_neq538_539: x538 + x539 >= 1
 c1077_neq538_539: - x538 - x539 >= -1
 c1078_neq539_540: x539 + x540 >= 1
 c1079_neq539_540: - x539 - x540 >= -1
 c1080_neq540_541: x540 + x541 >= 1
 c1081_neq540_541: - x540 - x541 >= -1
 c1082_neq541_542: x541 + x542 >= 1
 c1083_neq541_542: - x541 - x542 >= -1
 c1084_neq542_543: x542 + x543 >= 1
 c1085_neq542_543: - x542 - x543 >= -1
 c1086_neq543_544: x543 + x544 >= 1
 c1087_neq543_544: - x543 - x544 >= -1
 c1088_neq544_545: x544 + x545 >= 1
 c1089_neq544_545: - x544 - x545 >= -1
 c1090_neq545_546: x545 + x546 >= 1
 c1091_neq545_546: - x545 - x546 >= -1
 c1092_neq546_547: x546 + x547 >= 1
 c1093_neq546_547: - x546 - x547 >= -1
 c1094_neq547_548: x547 + x548 >= 1
 c1095_neq547_548: - x547 - x548 >= -1
 c1096_neq548_549: x548 + x549 >= 1
 c1097_neq548_549: - x548 - x549 >= -1
 c1098_neq549_550: x549 + x550 >= 1
 c1099_neq549_550: - x549 - x550 >= -1
 c1100_neq550_551: x550 + x551 >= 1
 c1101_neq550_551: - x550 - x551 >= -1
 c1102_neq551_552: x551 + x552 >= 1
 c1103_neq551_552: - x551 - x552 >= -1
 c1104_neq552_553: x552 + x553 >= 1
 c1105_neq552_553: - x552 - x553 >= -1
 c1106_neq553_554: x553 + x554 >= 1
 c1107_neq553_554: - x553 - x554 >= -1
 c1108_neq554_555: x554 + x555 >= 1
 c1109_neq554_555: - x554 - x555 >= -1
 c1110_neq555_556: x555 + x556 >= 1
 c1111_neq555_556: - x555 - x556 >= -1
 c1112_neq556_557: x556 + x557 >= 1
 c1113_neq556_557: - x556 - x557 >= -1
 c1114_neq557_558: x557 + x558 >= 1
 c1115_neq557_558: - x557 - x558 >= -1
 c1116_neq558_559: x558 + x559 >= 1
 c1117_neq558_559: - x558 - x559 >= -1
 c1118_neq559_560: x559 + x560 >= 1
 c1119_neq559_560: - x559 - x560 >= -1
 c1120_neq560_561: x560 + x561 >= 1
 c1121_neq560_561: - x560 - x561 >= -1
 c1122_neq561_562: x561 + x562 >= 1
 c1123_neq561_562: - x561 - x562 >= -1
 c1124_neq562_563: x562 + x563 >= 1
 c1125_neq562_563: - x562 - x563 >= -1
 c1126_neq563_564: x563 + x564 >= 1
 c1127_neq563_564: - x563 - x564 >= -1
 c1128_neq564_565: x564 + x565 >= 1
 c1129_neq564_565: - x564 - x565 >= -1
 c1130_neq565_566: x565 + x566 >= 1
 c1131_neq565_566: - x565 - x566 >= -1
 c1132_neq566_567: x566 + x567 >= 1
 c1133_neq566_567: - x566 - x567 >= -1
 c1134_neq567_568: x567 + x568 >= 1
 c1135_neq567_568: - x567 - x568 >= -1
 c1136_neq568_569: x568 + x569 >= 1
 c1137_neq568_569: - x568 - x569 >= -1
 c1138_neq569_570: x569 + x570 >= 1
 c1139_neq569_570: - x569 - x570 >= -1
 c1140_neq570_571: x570 + x571 >= 1
 c1141_neq570_571: - x570 - x571 >= -1
 c1142_neq571_572: x571 + x572 >= 1
 c1143_neq571_572: - x571 - x572 >= -1
 c1144_neq572_573: x572 + x573 >= 1
 c1145_neq572_573: - x572 - x573 >= -1
 c1146_neq573_574: x573 + x574 >= 1
 c1147_neq573_574: - x573 - x574 >= -1
 c1148_neq574_575: x574 + x575 >= 1
 c1149_neq574_575: - x574 - x575 >= -1
 c1150_neq575_576: x575 + x576 >= 1
 c1151_neq575_576: - x575 - x576 >= -1
 c1152_neq576_577: x576 + x577 >= 1
 c1153_neq576_577: - x576 - x577 >= -1
 c1154_neq577_578: x577 + x578 >= 1
 c1155_neq577_578: - x577 - x578 >= -1
 c1156_neq578_579: x578 + x579 >= 1
 c1157_neq578_579: - x578 - x579 >= -1
 c1158_neq579_580: x579 + x580 >= 1
 c1159_neq579_580: - x579 - x580 >= -1
 c1160_neq580_581: x580 + x581 >= 1
 c1161_neq580_581: - x580 - x581 >= -1
 c1162_neq581_582: x581 + x582 >= 1
 c1163_neq581_582: - x581 - x582 >= -1
 c1164_neq582_583: x582 + x583 >= 1
 c1165_neq582_583: - x582 - x583 >= -1
 c1166_neq583_584: x583 + x584 >= 1
 c1167_neq583_584: - x583 - x584 >= -1
 c1168_neq584_585: x584 + x585 >= 1
 c1169_neq584_585: - x584 - x585 >= -1
 c1170_neq585_586: x585 + x586 >= 1
 c1171_neq585_586: - x585 - x586 >= -1
 c1172_neq586_587: x586 + x587 >= 1
 c1173_neq586_587: - x586 - x587 >= -1
 c1174_neq587_588: x587 + x588 >= 1
 c1175_neq587_588: - x587 - x588 >= -1
 c1176_neq588_589: x588 + x589 >= 1
 c1177_neq588_589: - x588 - x589 >= -1
 c1178_neq589_590: x589 + x590 >= 1
 c1179_neq589_590: - x589 - x590 >= -1
 c1180_neq590_591: x590 + x591 >= 1
 c1181_neq590_591: - x590 - x591 >= -1
 c1182_neq591_592: x591 + x592 >= 1
 c1183_neq591_592: - x591 - x592 >= -1
 c1184_neq592_593: x592 + x593 >= 1
 c1185_neq592_593: - x592 - x593 >= -1
 c1186_neq593_594: x593 + x594 >= 1
 c1187_neq593_594: - x593 - x594 >= -1
 c1188_neq594_595: x594 + x595 >= 1
 c1189_neq594_595: - x594 - x595 >= -1
 c1190_neq595_596: x595 + x596 >= 1
 c1191_neq595_596: - x595 - x596 >= -1
 c1192_neq596_597: x596 + x597 >= 1
 c1193_neq596_597: - x596 - x597 >= -1
 c1194_neq597_598: x597 + x598 >= 1
 c1195_neq597_598: - x597 - x598 >= -1
 c1196_neq598_599: x598 + x599 >= 1
 c1197_neq598_599: - x598 - x599 >= -1
 c1198_neq599_600: x599 + x600 >= 1
 c1199_neq599_600: - x599 - x600 >= -1
 c1200_neq600_601: x600 + x601 >= 1
 c1201_neq600_601: - x600 - x601 >= -1
 c1202_neq601_602: x601 + x602 >= 1
 c1203_neq601_602: - x601 - x602 >= -1
 c1204_neq602_603: x602 + x603 >= 1
 c1205_neq602_603: - x602 - x603 >= -1
 c1206_neq603_604: x603 + x604 >= 1
 c1207_neq603_604: - x603 - x604 >= -1
 c1208_neq604_605: x604 + x605 >= 1
 c1209_neq604_605: - x604 - x605 >= -1
 c1210_neq605_606: x605 + x606 >= 1
 c1211_neq605_606: - x605 - x606 >= -1
 c1212_neq606_607: x606 + x607 >= 1
 c1213_neq606_607: - x606 - x607 >= -1
 c1214_neq607_608: x607 + x608 >= 1
 c1215_neq607_608: - x607 - x608 >= -1
 c1216_neq608_609: x608 + x609 >= 1
 c1217_neq608_609: - x608 - x609 >= -1
 c1218_neq609_610: x609 + x610 >= 1
 c1219_neq609_610: - x609 - x610 >= -1
 c1220_neq610_611: x610 + x611 >= 1
 c1221_neq610_611: - x610 - x611 >= -1
 c1222_neq611_612: x611 + x612 >= 1
 c1223_neq611_612: - x611 - x612 >= -1
 c1224_neq612_613: x612 + x613 >= 1
 c1225_neq612_613: - x612 - x613 >= -1
 c1226_neq613_614: x613 + x614 >= 1
 c1227_neq613_614: - x613 - x614 >= -1
 c1228_neq614_615: x614 + x615 >= 1
 c1229_neq614_615: - x614 - x615 >= -1
 c1230_neq615_616: x615 + x616 >= 1
 c1231_neq615_616: - x615 - x616 >= -1
 c1232_neq616_617: x616 + x617 >= 1
 c1233_neq616_617: - x616 - x617 >= -1
 c1234_neq617_618: x617 + x618 >= 1
 c1235_neq617_618: - x617 - x618 >= -1
 c1236_neq618_619: x618 + x619 >= 1
 c1237_neq618_619: - x618 - x619 >= -1
 c1238_neq619_620: x619 + x620 >= 1
 c1239_neq619_620: - x619 - x620 >= -1
 c1240_neq620_621: x620 + x621 >= 1
 c1241_neq620_621: - x620 - x621 >= -1
 c1242_neq621_622: x621 + x622 >= 1
 c1243_neq621_622: - x621 - x622 >= -1
 c1244_neq622_623: x622 + x623 >= 1
 c1245_neq622_623: - x622 - x623 >= -1
 c1246_neq623_624: x623 + x624 >= 1
 c1247_neq623_624: - x623 - x624 >= -1
 c1248_neq624_625: x624 + x625 >= 1
 c1249_neq624_625: - x624 - x625 >= -1
 c1250_neq625_626: x625 + x626 >= 1
 c1251_neq625_626: - x625 - x626 >= -1
 c1252_neq626_627: x626 + x627 >= 1
 c1253_neq626_627: - x626 - x627 >= -1
 c1254_neq627_628: x627 + x628 >= 1
 c1255_neq627_628: - x627 - x628 >= -1
 c1256_neq628_629: x628 + x629 >= 1
 c1257_neq628_629: - x628 - x629 >= -1
 c1258_neq629_630: x629 + x630 >= 1
 c1259_neq629_630: - x629 - x630 >= -1
 c1260_neq630_631: x630 + x631 >= 1
 c1261_neq630_631: - x630 - x631 >= -1
 c1262_neq631_632: x631 + x632 >= 1
 c1263_neq631_632: - x631 - x632 >= -1
 c1264_neq632_633: x632 + x633 >= 1
 c1265_neq632_633: - x632 - x633 >= -1
 c1266_neq633_634: x633 + x634 >= 1
 c1267_neq633_634: - x633 - x634 >= -1
 c1268_neq634_635: x634 + x635 >= 1
 c1269_neq634_635: - x634 - x635 >= -1
 c1270_neq635_636: x635 + x636 >= 1
 c1271_neq635_636: - x635 - x636 >= -1
 c1272_neq636_637: x636 + x637 >= 1
 c1273_neq636_637: - x636 - x637 >= -1
 c1274_neq637_638: x637 + x638 >= 1
 c1275_neq637_638: - x637 - x638 >= -1
 c1276_neq638_639: x638 + x639 >= 1
 c1277_neq638_639: - x638 - x639 >= -1
 c1278_neq639_640: x639 + x640 >= 1
 c1279_neq639_640: - x639 - x640 >= -1
 c1280_neq640_641: x640 + x641 >= 1
 c1281_neq640_641: - x640 - x641 >= -1
 c1282_neq641_642: x641 + x642 >= 1
 c1283_neq641_642: - x641 - x642 >= -1
 c1284_neq642_643: x642 + x643 >= 1
 c1285_neq642_643: - x642 - x643 >= -1
 c1286_neq643_644: x643 + x644 >= 1
 c1287_neq643_644: - x643 - x644 >= -1
 c1288_neq644_645: x644 + x645 >= 1
 c1289_neq644_645: - x644 - x645 >= -1
 c1290_neq645_646: x645 + x646 >= 1
 c1291_neq645_646: - x645 - x646 >= -1
 c1292_neq646_647: x646 + x647 >= 1
 c1293_neq646_647: - x646 - x647 >= -1
 c1294_neq647_648: x647 + x648 >= 1
 c1295_neq647_648: - x647 - x648 >= -1
 c1296_neq648_649: x648 + x649 >= 1
 c1297_neq648_649: - x648 - x649 >= -1
 c1298_neq649_650: x649 + x650 >= 1
 c1299_neq649_650: - x649 - x650 >= -1
 c1300_neq650_651: x650 + x651 >= 1
 c1301_neq650_651: - x650 - x651 >= -1
 c1302_neq651_652: x651 + x652 >= 1
 c1303_neq651_652: - x651 - x652 >= -1
 c1304_neq652_653: x652 + x653 >= 1
 c1305_neq652_653: - x652 - x653 >= -1
 c1306_neq653_654: x653 + x654 >= 1
 c1307_neq653_654: - x653 - x654 >= -1
 c1308_neq654_655: x654 + x655 >= 1
 c1309_neq654_655: - x654 - x655 >= -1
 c1310_neq655_656: x655 + x656 >= 1
 c1311_neq655_656: - x655 - x656 >= -1
 c1312_neq656_657: x656 + x657 >= 1
 c1313_neq656_657: - x656 - x657 >= -1
 c1314_neq657_658: x657 + x658 >= 1
 c1315_neq657_658: - x657 - x658 >= -1
 c1316_neq658_659: x658 + x659 >= 1
 c1317_neq658_659: - x658 - x659 >= -1
 c1318_neq659_660: x659 + x660 >= 1
 c1319_neq659_660: - x659 - x660 >= -1
 c1320_neq660_661: x660 + x661 >= 1
 c1321_neq660_661: - x660 - x661 >= -1
 c1322_neq661_662: x661 + x662 >= 1
 c1323_neq661_662: - x661 - x662 >= -1
 c1324_neq662_663: x662 + x663 >= 1
 c1325_neq662_663: - x662 - x663 >= -1
 c1326_neq663_664: x663 + x664 >= 1
 c1327_neq663_664: - x663 - x664 >= -1
 c1328_neq664_665: x664 + x665 >= 1
 c1329_neq664_665: - x664 - x665 >= -1
 c1330_neq665_666: x665 + x666 >= 1
 c1331_neq665_666: - x665 - x666 >= -1
 c1332_neq666_667: x666 + x667 >= 1
 c1333_neq666_667: - x666 - x667 >= -1
 c1334_neq667_668: x667 + x668 >= 1
 c1335_neq667_668: - x667 - x668 >= -1
 c1336_neq668_669: x668 + x669 >= 1
 c1337_neq668_669: - x668 - x669 >= -1
 c1338_neq669_670: x669 + x670 >= 1
 c1339_neq669_670: - x669 - x670 >= -1
 c1340_neq670_671: x670 + x671 >= 1
 c1341_neq670_671: - x670 - x671 >= -1
 c1342_neq671_672: x671 + x672 >= 1
 c1343_neq671_672: - x671 - x672 >= -1
 c1344_neq672_673: x672 + x673 >= 1
 c1345_neq672_673: - x672 - x673 >= -1
 c1346_neq673_674: x673 + x674 >= 1
 c1347_neq673_674: - x673 - x674 >= -1
 c1348_neq674_675: x674 + x675 >= 1
 c1349_neq674_675: - x674 - x675 >= -1
 c1350_neq675_676: x675 + x676 >= 1
 c1351_neq675_676: - x675 - x676 >= -1
 c1352_neq676_677: x676 + x677 >= 1
 c1353_neq676_677: - x676 - x677 >= -1
 c1354_neq677_678: x677 + x678 >= 1
 c1355_neq677_678: - x677 - x678 >= -1
 c1356_neq678_679: x678 + x679 >= 1
 c1357_neq678_679: - x678 - x679 >= -1
 c1358_neq679_680: x679 + x680 >= 1
 c1359_neq679_680: - x679 - x680 >= -1
 c1360_neq680_681: x680 + x681 >= 1
 c1361_neq680_681: - x680 - x681 >= -1
 c1362_neq681_682: x681 + x682 >= 1
 c1363_neq681_682: - x681 - x682 >= -1
 c1364_neq682_683: x682 + x683 >= 1
 c1365_neq682_683: - x682 - x683 >= -1
 c1366_neq683_684: x683 + x684 >= 1
 c1367_neq683_684: - x683 - x684 >= -1
 c1368_neq684_685: x684 + x685 >= 1
 c1369_neq684_685: - x684 - x685 >= -1
 c1370_neq685_686: x685 + x686 >= 1
 c1371_neq685_686: - x685 - x686 >= -1
 c1372_neq686_687: x686 + x687 >= 1
 c1373_neq686_687: - x686 - x687 >= -1
 c1374_neq687_688: x687 + x688 >= 1
 c1375_neq687_688: - x687 - x688 >= -1
 c1376_neq688_689: x688 + x689 >= 1
 c1377_neq688_689: - x688 - x689 >= -1
 c1378_neq689_690: x689 + x690 >= 1
 c1379_neq689_690: - x689 - x690 >= -1
 c1380_neq690_691: x690 + x691 >= 1
 c1381_neq690_691: - x690 - x691 >= -1
 c1382_neq691_692: x691 + x692 >= 1
 c1383_neq691_692: - x691 - x692 >= -1
 c1384_neq692_693: x692 + x693 >= 1
 c1385_neq692_693: - x692 - x693 >= -1
 c1386_neq693_694: x693 + x694 >= 1
 c1387_neq693_694: - x693 - x694 >= -1
 c1388_neq694_695: x694 + x695 >= 1
 c1389_neq694_695: - x694 - x695 >= -1
 c1390_neq695_696: x695 + x696 >= 1
 c1391_neq695_696: - x695 - x696 >= -1
 c1392_neq696_697: x696 + x697 >= 1
 c1393_neq696_697: - x696 - x697 >= -1
 c1394_neq697_698: x697 + x698 >= 1
 c1395_neq697_698: - x697 - x698 >= -1
 c1396_neq698_699: x698 + x699 >= 1
 c1397_neq698_699: - x698 - x699 >= -1
 c1398_neq699_700: x699 + x700 >= 1
 c1399_neq699_700: - x699 - x700 >= -1
 c1400_neq700_701: x700 + x701 >= 1
 c1401_neq700_701: - x700 - x701 >= -1
 c1402_neq701_702: x701 + x702 >= 1
 c1403_neq701_702: - x701 - x702 >= -1
 c1404_neq702_703: x702 + x703 >= 1
 c1405_neq702_703: - x702 - x703 >= -1
 c1406_neq703_704: x703 + x704 >= 1
 c1407_neq703_704: - x703 - x704 >= -1
 c1408_neq704_705: x704 + x705 >= 1
 c1409_neq704_705: - x704 - x705 >= -1
 c1410_neq705_706: x705 + x706 >= 1
 c1411_neq705_706: - x705 - x706 >= -1
 c1412_neq706_707: x706 + x707 >= 1
 c1413_neq706_707: - x706 - x707 >= -1
 c1414_neq707_708: x707 + x708 >= 1
 c1415_neq707_708: - x707 - x708 >= -1
 c1416_neq708_709: x708 + x709 >= 1
 c1417_neq708_709: - x708 - x709 >= -1
 c1418_neq709_710: x709 + x710 >= 1
 c1419_neq709_710: - x709 - x710 >= -1
 c1420_neq710_711: x710 + x711 >= 1
 c1421_neq710_711: - x710 - x711 >= -1
 c1422_neq711_712: x711 + x712 >= 1
 c1423_neq711_712: - x711 - x712 >= -1
 c1424_neq712_713: x712 + x713 >= 1
 c1425_neq712_713: - x712 - x713 >= -1
 c1426_neq713_714: x713 + x714 >= 1
 c1427_neq713_714: - x713 - x714 >= -1
 c1428_neq714_715: x714 + x715 >= 1
 c1429_neq714_715: - x714 - x715 >= -1
 c1430_neq715_716: x715 + x716 >= 1
 c1431_neq715_716: - x715 - x716 >= -1
 c1432_neq716_717: x716 + x717 >= 1
 c1433_neq716_717: - x716 - x717 >= -1
 c1434_neq717_718: x717 + x718 >= 1
 c1435_neq717_718: - x717 - x718 >= -1
 c1436_neq718_719: x718 + x719 >= 1
 c1437_neq718_719: - x718 - x719 >= -1
 c1438_neq719_720: x719 + x720 >= 1
 c1439_neq719_720: - x719 - x720 >= -1
 c1440_neq720_721: x720 + x721 >= 1
 c1441_neq720_721: - x720 - x721 >= -1
 c1442_neq721_722: x721 + x722 >= 1
 c1443_neq721_722: - x721 - x722 >= -1
 c1444_neq722_723: x722 + x723 >= 1
 c1445_neq722_723: - x722 - x723 >= -1
 c1446_neq723_724: x723 + x724 >= 1
 c1447_neq723_724: - x723 - x724 >= -1
 c1448_neq724_725: x724 + x725 >= 1
 c1449_neq724_725: - x724 - x725 >= -1
 c1450_neq725_726: x725 + x726 >= 1
 c1451_neq725_726: - x725 - x726 >= -1
 c1452_neq726_727: x726 + x727 >= 1
 c1453_neq726_727: - x726 - x727 >= -1
 c1454_neq727_728: x727 + x728 >= 1
 c1455_neq727_728: - x727 - x728 >= -1
 c1456_neq728_729: x728 + x729 >= 1
 c1457_neq728_729: - x728 - x729 >= -1
 c1458_neq729_730: x729 + x730 >= 1
 c1459_neq729_730: - x729 - x730 >= -1
 c1460_neq730_731: x730 + x731 >= 1
 c1461_neq730_731: - x730 - x731 >= -1
 c1462_neq731_732: x731 + x732 >= 1
 c1463_neq731_732: - x731 - x732 >= -1
 c1464_neq732_733: x732 + x733 >= 1
 c1465_neq732_733: - x732 - x733 >= -1
 c1466_neq733_734: x733 + x734 >= 1
 c1467_neq733_734: - x733 - x734 >= -1
 c1468_neq734_735: x734 + x735 >= 1
 c1469_neq734_735: - x734 - x735 >= -1
 c1470_neq735_736: x735 + x736 >= 1
 c1471_neq735_736: - x735 - x736 >= -1
 c1472_neq736_737: x736 + x737 >= 1
 c1473_neq736_737: - x736 - x737 >= -1
 c1474_neq737_738: x737 + x738 >= 1
 c1475_neq737_738: - x737 - x738 >= -1
 c1476_neq738_739: x738 + x739 >= 1
 c1477_neq738_739: - x738 - x739 >= -1
 c1478_neq739_740: x739 + x740 >= 1
 c1479_neq739_740: - x739 - x740 >= -1
 c1480_neq740_741: x740 + x741 >= 1
 c1481_neq740_741: - x740 - x741 >= -1
 c1482_neq741_742: x741 + x742 >= 1
 c1483_neq741_742: - x741 - x742 >= -1
 c1484_neq742_743: x742 + x743 >= 1
 c1485_neq742_743: - x742 - x743 >= -1
 c1486_neq743_744: x743 + x744 >= 1
 c1487_neq743_744: - x743 - x744 >= -1
 c1488_neq744_745: x744 + x745 >= 1
 c1489_neq744_745: - x744 - x745 >= -1
 c1490_neq745_746: x745 + x746 >= 1
 c1491_neq745_746: - x745 - x746 >= -1
 c1492_neq746_747: x746 + x747 >= 1
 c1493_neq746_747: - x746 - x747 >= -1
 c1494_neq747_748: x747 + x748 >= 1
 c1495_neq747_748: - x747 - x748 >= -1
 c1496_neq748_749: x748 + x749 >= 1
 c1497_neq748_749: - x748 - x749 >= -1
 c1498_neq749_750: x749 + x750 >= 1
 c1499_neq749_750: - x749 - x750 >= -1
 c1500_neq750_751: x750 + x751 >= 1
 c1501_neq750_751: - x750 - x751 >= -1
 c1502_neq751_752: x751 + x752 >= 1
 c1503_neq751_752: - x751 - x752 >= -1
 c1504_neq752_753: x752 + x753 >= 1
 c1505_neq752_753: - x752 - x753 >= -1
 c1506_neq753_754: x753 + x754 >= 1
 c1507_neq753_754: - x753 - x754 >= -1
 c1508_neq754_755: x754 + x755 >= 1
 c1509_neq754_755: - x754 - x755 >= -1
 c1510_neq755_756: x755 + x756 >= 1
 c1511_neq755_756: - x755 - x756 >= -1
 c1512_neq756_757: x756 + x757 >= 1
 c1513_neq756_757: - x756 - x757 >= -1
 c1514_neq757_758: x757 + x758 >= 1
 c1515_neq757_758: - x757 - x758 >= -1
 c1516_neq758_759: x758 + x759 >= 1
 c1517_neq758_759: - x758 - x759 >= -1
 c1518_neq759_760: x759 + x760 >= 1
 c1519_neq759_760: - x759 - x760 >= -1
 c1520_neq760_761: x760 + x761 >= 1
 c1521_neq760_761: - x760 - x761 >= -1
 c1522_neq761_762: x761 + x762 >= 1
 c1523_neq761_762: - x761 - x762 >= -1
 c1524_neq762_763: x762 + x763 >= 1
 c1525_neq762_763: - x762 - x763 >= -1
 c1526_neq763_764: x763 + x764 >= 1
 c1527_neq763_764: - x763 - x764 >= -1
 c1528_neq764_765: x764 + x765 >= 1
 c1529_neq764_765: - x764 - x765 >= -1
 c1530_neq765_766: x765 + x766 >= 1
 c1531_neq765_766: - x765 - x766 >= -1
 c1532_neq766_767: x766 + x767 >= 1
 c1533_neq766_767: - x766 - x767 >= -1
 c1534_neq767_768: x767 + x768 >= 1
 c1535_neq767_768: - x767 - x768 >= -1
 c1536_neq768_769: x768 + x769 >= 1
 c1537_neq768_769: - x768 - x769 >= -1
 c1538_neq769_770: x769 + x770 >= 1
 c1539_neq769_770: - x769 - x770 >= -1
 c1540_neq770_771: x770 + x771 >= 1
 c1541_neq770_771: - x770 - x771 >= -1
 c1542_neq771_772: x771 + x772 >= 1
 c1543_neq771_772: - x771 - x772 >= -1
 c1544_neq772_773: x772 + x773 >= 1
 c1545_neq772_773: - x772 - x773 >= -1
 c1546_neq773_774: x773 + x774 >= 1
 c1547_neq773_774: - x773 - x774 >= -1
 c1548_neq774_775: x774 + x775 >= 1
 c1549_neq774_775: - x774 - x775 >= -1
 c1550_neq775_776: x775 + x776 >= 1
 c1551_neq775_776: - x775 - x776 >= -1
 c1552_neq776_777: x776 + x777 >= 1
 c1553_neq776_777: - x776 - x777 >= -1
 c1554_neq777_778: x777 + x778 >= 1
 c1555_neq777_778: - x777 - x778 >= -1
 c1556_neq778_779: x778 + x779 >= 1
 c1557_neq778_779: - x778 - x779 >= -1
 c1558_neq779_780: x779 + x780 >= 1
 c1559_neq779_780: - x779 - x780 >= -1
 c1560_neq780_781: x780 + x781 >= 1
 c1561_neq780_781: - x780 - x781 >= -1
 c1562_neq781_782: x781 + x782 >= 1
 c1563_neq781_782: - x781 - x782 >= -1
 c1564_neq782_783: x782 + x783 >= 1
 c1565_neq782_783: - x782 - x783 >= -1
 c1566_neq783_784: x783 + x784 >= 1
 c1567_neq783_784: - x783 - x784 >= -1
 c1568_neq784_785: x784 + x785 >= 1
 c1569_neq784_785: - x784 - x785 >= -1
 c1570_neq785_786: x785 + x786 >= 1
 c1571_neq785_786: - x785 - x786 >= -1
 c1572_neq786_787: x786 + x787 >= 1
 c1573_neq786_787: - x786 - x787 >= -1
 c1574_neq787_788: x787 + x788 >= 1
 c1575_neq787_788: - x787 - x788 >= -1
 c1576_neq788_789: x788 + x789 >= 1
 c1577_neq788_789: - x788 - x789 >= -1
 c1578_neq789_790: x789 + x790 >= 1
 c1579_neq789_790: - x789 - x790 >= -1
 c1580_neq790_791: x790 + x791 >= 1
 c1581_neq790_791: - x790 - x791 >= -1
 c1582_neq791_792: x791 + x792 >= 1
 c1583_neq791_792: - x791 - x792 >= -1
 c1584_neq792_793: x792 + x793 >= 1
 c1585_neq792_793: - x792 - x793 >= -1
 c1586_neq793_794: x793 + x794 >= 1
 c1587_neq793_794: - x793 - x794 >= -1
 c1588_neq794_795: x794 + x795 >= 1
 c1589_neq794_795: - x794 - x795 >= -1
 c1590_neq795_796: x795 + x796 >= 1
 c1591_neq795_796: - x795 - x796 >= -1
 c1592_neq796_797: x796 + x797 >= 1
 c1593_neq796_797: - x796 - x797 >= -1
 c1594_neq797_798: x797 + x798 >= 1
 c1595_neq797_798: - x797 - x798 >= -1
 c1596_neq798_799: x798 + x799 >= 1
 c1597_neq798_799: - x798 - x799 >= -1
 c1598_neq799_800: x799 + x800 >= 1
 c1599_neq799_800: - x799 - x800 >= -1
 c1600_neq800_801: x800 + x801 >= 1
 c1601_neq800_801: - x800 - x801 >= -1
 c1602_neq801_802: x801 + x802 >= 1
 c1603_neq801_802: - x801 - x802 >= -1
 c1604_neq802_803: x802 + x803 >= 1
 c1605_neq802_803: - x802 - x803 >= -1
 c1606_neq803_804: x803 + x804 >= 1
 c1607_neq803_804: - x803 - x804 >= -1
 c1608_neq804_805: x804 + x805 >= 1
 c1609_neq804_805: - x804 - x805 >= -1
 c1610_neq805_806: x805 + x806 >= 1
 c1611_neq805_806: - x805 - x806 >= -1
 c1612_neq806_807: x806 + x807 >= 1
 c1613_neq806_807: - x806 - x807 >= -1
 c1614_neq807_808: x807 + x808 >= 1
 c1615_neq807_808: - x807 - x808 >= -1
 c1616_neq808_809: x808 + x809 >= 1
 c1617_neq808_809: - x808 - x809 >= -1
 c1618_neq809_810: x809 + x810 >= 1
 c1619_neq809_810: - x809 - x810 >= -1
 c1620_neq810_811: x810 + x811 >= 1
 c1621_neq810_811: - x810 - x811 >= -1
 c1622_neq811_812: x811 + x812 >= 1
 c1623_neq811_812: - x811 - x812 >= -1
 c1624_neq812_813: x812 + x813 >= 1
 c1625_neq812_813: - x812 - x813 >= -1
 c1626_neq813_814: x813 + x814 >= 1
 c1627_neq813_814: - x813 - x814 >= -1
 c1628_neq814_815: x814 + x815 >= 1
 c1629_neq814_815: - x814 - x815 >= -1
 c1630_neq815_816: x815 + x816 >= 1
 c1631_neq815_816: - x815 - x816 >= -1
 c1632_neq816_817: x816 + x817 >= 1
 c1633_neq816_817: - x816 - x817 >= -1
 c1634_neq817_818: x817 + x818 >= 1
 c1635_neq817_818: - x817 - x818 >= -1
 c1636_neq818_819: x818 + x819 >= 1
 c1637_neq818_819: - x818 - x819 >= -1
 c1638_neq819_820: x819 + x820 >= 1
 c1639_neq819_820: - x819 - x820 >= -1
 c1640_neq820_821: x820 + x821 >= 1
 c1641_neq820_821: - x820 - x821 >= -1
 c1642_neq821_822: x821 + x822 >= 1
 c1643_neq821_822: - x821 - x822 >= -1
 c1644_neq822_823: x822 + x823 >= 1
 c1645_neq822_823: - x822 - x823 >= -1
 c1646_neq823_824: x823 + x824 >= 1
 c1647_neq823_824: - x823 - x824 >= -1
 c1648_neq824_825: x824 + x825 >= 1
 c1649_neq824_825: - x824 - x825 >= -1
 c1650_neq825_826: x825 + x826 >= 1
 c1651_neq825_826: - x825 - x826 >= -1
 c1652_neq826_827: x826 + x827 >= 1
 c1653_neq826_827: - x826 - x827 >= -1
 c1654_neq827_828: x827 + x828 >= 1
 c1655_neq827_828: - x827 - x828 >= -1
 c1656_neq828_829: x828 + x829 >= 1
 c1657_neq828_829: - x828 - x829 >= -1
 c1658_neq829_830: x829 + x830 >= 1
 c1659_neq829_830: - x829 - x830 >= -1
 c1660_neq830_831: x830 + x831 >= 1
 c1661_neq830_831: - x830 - x831 >= -1
 c1662_neq831_832: x831 + x832 >= 1
 c1663_neq831_832: - x831 - x832 >= -1
 c1664_neq832_833: x832 + x833 >= 1
 c1665_neq832_833: - x832 - x833 >= -1
 c1666_neq833_834: x833 + x834 >= 1
 c1667_neq833_834: - x833 - x834 >= -1
 c1668_neq834_835: x834 + x835 >= 1
 c1669_neq834_835: - x834 - x835 >= -1
 c1670_neq835_836: x835 + x836 >= 1
 c1671_neq835_836: - x835 - x836 >= -1
 c1672_neq836_837: x836 + x837 >= 1
 c1673_neq836_837: - x836 - x837 >= -1
 c1674_neq837_838: x837 + x838 >= 1
 c1675_neq837_838: - x837 - x838 >= -1
 c1676_neq838_839: x838 + x839 >= 1
 c1677_neq838_839: - x838 - x839 >= -1
 c1678_neq839_840: x839 + x840 >= 1
 c1679_neq839_840: - x839 - x840 >= -1
 c1680_neq840_841: x840 + x841 >= 1
 c1681_neq840_841: - x840 - x841 >= -1
 c1682_neq841_842: x841 + x842 >= 1
 c1683_neq841_842: - x841 - x842 >= -1
 c1684_neq842_843: x842 + x843 >= 1
 c1685_neq842_843: - x842 - x843 >= -1
 c1686_neq843_844: x843 + x844 >= 1
 c1687_neq843_844: - x843 - x844 >= -1
 c1688_neq844_845: x844 + x845 >= 1
 c1689_neq844_845: - x844 - x845 >= -1
 c1690_neq845_846: x845 + x846 >= 1
 c1691_neq845_846: - x845 - x846 >= -1
 c1692_neq846_847: x846 + x847 >= 1
 c1693_neq846_847: - x846 - x847 >= -1
 c1694_neq847_848: x847 + x848 >= 1
 c1695_neq847_848: - x847 - x848 >= -1
 c1696_neq848_849: x848 + x849 >= 1
 c1697_neq848_849: - x848 - x849 >= -1
 c1698_neq849_850: x849 + x850 >= 1
 c1699_neq849_850: - x849 - x850 >= -1
 c1700_neq850_851: x850 + x851 >= 1
 c1701_neq850_851: - x850 - x851 >= -1
 c1702_neq851_852: x851 + x852 >= 1
 c1703_neq851_852: - x851 - x852 >= -1
 c1704_neq852_853: x852 + x853 >= 1
 c1705_neq852_853: - x852 - x853 >= -1
 c1706_neq853_854: x853 + x854 >= 1
 c1707_neq853_854: - x853 - x854 >= -1
 c1708_neq854_855: x854 + x855 >= 1
 c1709_neq854_855: - x854 - x855 >= -1
 c1710_neq855_856: x855 + x856 >= 1
 c1711_neq855_856: - x855 - x856 >= -1
 c1712_neq856_857: x856 + x857 >= 1
 c1713_neq856_857: - x856 - x857 >= -1
 c1714_neq857_858: x857 + x858 >= 1
 c1715_neq857_858: - x857 - x858 >= -1
 c1716_neq858_859: x858 + x859 >= 1
 c1717_neq858_859: - x858 - x859 >= -1
 c1718_neq859_860: x859 + x860 >= 1
 c1719_neq859_860: - x859 - x860 >= -1
 c1720_neq860_861: x860 + x861 >= 1
 c1721_neq860_861: - x860 - x861 >= -1
 c1722_neq861_862: x861 + x862 >= 1
 c1723_neq861_862: - x861 - x862 >= -1
 c1724_neq862_863: x862 + x863 >= 1
 c1725_neq862_863: - x862 - x863 >= -1
 c1726_neq863_864: x863 + x864 >= 1
 c1727_neq863_864: - x863 - x864 >= -1
 c1728_neq864_865: x864 + x865 >= 1
 c1729_neq864_865: - x864 - x865 >= -1
 c1730_neq865_866: x865 + x866 >= 1
 c1731_neq865_866: - x865 - x866 >= -1
 c1732_neq866_867: x866 + x867 >= 1
 c1733_neq866_867: - x866 - x867 >= -1
 c1734_neq867_868: x867 + x868 >= 1
 c1735_neq867_868: - x867 - x868 >= -1
 c1736_neq868_869: x868 + x869 >= 1
 c1737_neq868_869: - x868 - x869 >= -1
 c1738_neq869_870: x869 + x870 >= 1
 c1739_neq869_870: - x869 - x870 >= -1
 c1740_neq870_871: x870 + x871 >= 1
 c1741_neq870_871: - x870 - x871 >= -1
 c1742_neq871_872: x871 + x872 >= 1
 c1743_neq871_872: - x871 - x872 >= -1
 c1744_neq872_873: x872 + x873 >= 1
 c1745_neq872_873: - x872 - x873 >= -1
 c1746_neq873_874: x873 + x874 >= 1
 c1747_neq873_874: - x873 - x874 >= -1
 c1748_neq874_875: x874 + x875 >= 1
 c1749_neq874_875: - x874 - x875 >= -1
 c1750_neq875_876: x875 + x876 >= 1
 c1751_neq875_876: - x875 - x876 >= -1
 c1752_neq876_877: x876 + x877 >= 1
 c1753_neq876_877: - x876 - x877 >= -1
 c1754_neq877_878: x877 + x878 >= 1
 c1755_neq877_878: - x877 - x878 >= -1
 c1756_neq878_879: x878 + x879 >= 1
 c1757_neq878_879: - x878 - x879 >= -1
 c1758_neq879_880: x879 + x880 >= 1
 c1759_neq879_880: - x879 - x880 >= -1
 c1760_neq880_881: x880 + x881 >= 1
 c1761_neq880_881: - x880 - x881 >= -1
 c1762_neq881_882: x881 + x882 >= 1
 c1763_neq881_882: - x881 - x882 >= -1
 c1764_neq882_883: x882 + x883 >= 1
 c1765_neq882_883: - x882 - x883 >= -1
 c1766_neq883_884: x883 + x884 >= 1
 c1767_neq883_884: - x883 - x884 >= -1
 c1768_neq884_885: x884 + x885 >= 1
 c1769_neq884_885: - x884 - x885 >= -1
 c1770_neq885_886: x885 + x886 >= 1
 c1771_neq885_886: - x885 - x886 >= -1
 c1772_neq886_887: x886 + x887 >= 1
 c1773_neq886_887: - x886 - x887 >= -1
 c1774_neq887_888: x887 + x888 >= 1
 c1775_neq887_888: - x887 - x888 >= -1
 c1776_neq888_889: x888 + x889 >= 1
 c1777_neq888_889: - x888 - x889 >= -1
 c1778_neq889_890: x889 + x890 >= 1
 c1779_neq889_890: - x889 - x890 >= -1
 c1780_neq890_891: x890 + x891 >= 1
 c1781_neq890_891: - x890 - x891 >= -1
 c1782_neq891_892: x891 + x892 >= 1
 c1783_neq891_892: - x891 - x892 >= -1
 c1784_neq892_893: x892 + x893 >= 1
 c1785_neq892_893: - x892 - x893 >= -1
 c1786_neq893_894: x893 + x894 >= 1
 c1787_neq893_894: - x893 - x894 >= -1
 c1788_neq894_895: x894 + x895 >= 1
 c1789_neq894_895: - x894 - x895 >= -1
 c1790_neq895_896: x895 + x896 >= 1
 c1791_neq895_896: - x895 - x896 >= -1
 c1792_neq896_897: x896 + x897 >= 1
 c1793_neq896_897: - x896 - x897 >= -1
 c1794_neq897_898: x897 + x898 >= 1
 c1795_neq897_898: - x897 - x898 >= -1
 c1796_neq898_899: x898 + x899 >= 1
 c1797_neq898_899: - x898 - x899 >= -1
 c1798_neq899_900: x899 + x900 >= 1
 c1799_neq899_900: - x899 - x900 >= -1
 c1800_neq900_901: x900 + x901 >= 1
 c1801_neq900_901: - x900 - x901 >= -1
 c1802_neq901_902: x901 + x902 >= 1
 c1803_neq901_902: - x901 - x902 >= -1
 c1804_neq902_903: x902 + x903 >= 1
 c1805_neq902_903: - x902 - x903 >= -1
 c1806_neq903_904: x903 + x904 >= 1
 c1807_neq903_904: - x903 - x904 >= -1
 c1808_neq904_905: x904 + x905 >= 1
 c1809_neq904_905: - x904 - x905 >= -1
 c1810_neq905_906: x905 + x906 >= 1
 c1811_neq905_906: - x905 - x906 >= -1
 c1812_neq906_907: x906 + x907 >= 1
 c1813_neq906_907: - x906 - x907 >= -1
 c1814_neq907_908: x907 + x908 >= 1
 c1815_neq907_908: - x907 - x908 >= -1
 c1816_neq908_909: x908 + x909 >= 1
 c1817_neq908_909: - x908 - x909 >= -1
 c1818_neq909_910: x909 + x910 >= 1
 c1819_neq909_910: - x909 - x910 >= -1
 c1820_neq910_911: x910 + x911 >= 1
 c1821_neq910_911: - x910 - x911 >= -1
 c1822_neq911_912: x911 + x912 >= 1
 c1823_neq911_912: - x911 - x912 >= -1
 c1824_neq912_913: x912 + x913 >= 1
 c1825_neq912_913: - x912 - x913 >= -1
 c1826_neq913_914: x913 + x914 >= 1
 c1827_neq913_914: - x913 - x914 >= -1
 c1828_neq914_915: x914 + x915 >= 1
 c1829_neq914_915: - x914 - x915 >= -1
 c1830_neq915_916: x915 + x916 >= 1
 c1831_neq915_916: - x915 - x916 >= -1
 c1832_neq916_917: x916 + x917 >= 1
 c1833_neq916_917: - x916 - x917 >= -1
 c1834_neq917_918: x917 + x918 >= 1
 c1835_neq917_918: - x917 - x918 >= -1
 c1836_neq918_919: x918 + x919 >= 1
 c1837_neq918_919: - x918 - x919 >= -1
 c1838_neq919_920: x919 + x920 >= 1
 c1839_neq919_920: - x919 - x920 >= -1
 c1840_neq920_921: x920 + x921 >= 1
 c1841_neq920_921: - x920 - x921 >= -1
 c1842_neq921_922: x921 + x922 >= 1
 c1843_neq921_922: - x921 - x922 >= -1
 c1844_neq922_923: x922 + x923 >= 1
 c1845_neq922_923: - x922 - x923 >= -1
 c1846_neq923_924: x923 + x924 >= 1
 c1847_neq923_924: - x923 - x924 >= -1
 c1848_neq924_925: x924 + x925 >= 1
 c1849_neq924_925: - x924 - x925 >= -1
 c1850_neq925_926: x925 + x926 >= 1
 c1851_neq925_926: - x925 - x926 >= -1
 c1852_neq926_927: x926 + x927 >= 1
 c1853_neq926_927: - x926 - x927 >= -1
 c1854_neq927_928: x927 + x928 >= 1
 c1855_neq927_928: - x927 - x928 >= -1
 c1856_neq928_929: x928 + x929 >= 1
 c1857_neq928_929: - x928 - x929 >= -1
 c1858_neq929_930: x929 + x930 >= 1
 c1859_neq929_930: - x929 - x930 >= -1
 c1860_neq930_931: x930 + x931 >= 1
 c1861_neq930_931: - x930 - x931 >= -1
 c1862_neq931_932: x931 + x932 >= 1
 c1863_neq931_932: - x931 - x932 >= -1
 c1864_neq932_933: x932 + x933 >= 1
 c1865_neq932_933: - x932 - x933 >= -1
 c1866_neq933_934: x933 + x934 >= 1
 c1867_neq933_934: - x933 - x934 >= -1
 c1868_neq934_935: x934 + x935 >= 1
 c1869_neq934_935: - x934 - x935 >= -1
 c1870_neq935_936: x935 + x936 >= 1
 c1871_neq935_936: - x935 - x936 >= -1
 c1872_neq936_937: x936 + x937 >= 1
 c1873_neq936_937: - x936 - x937 >= -1
 c1874_neq937_938: x937 + x938 >= 1
 c1875_neq937_938: - x937 - x938 >= -1
 c1876_neq938_939: x938 + x939 >= 1
 c1877_neq938_939: - x938 - x939 >= -1
 c1878_neq939_940: x939 + x940 >= 1
 c1879_neq939_940: - x939 - x940 >= -1
 c1880_neq940_941: x940 + x941 >= 1
 c1881_neq940_941: - x940 - x941 >= -1
 c1882_neq941_942: x941 + x942 >= 1
 c1883_neq941_942: - x941 - x942 >= -1
 c1884_neq942_943: x942 + x943 >= 1
 c1885_neq942_943: - x942 - x943 >= -1
 c1886_neq943_944: x943 + x944 >= 1
 c1887_neq943_944: - x943 - x944 >= -1
 c1888_neq944_945: x944 + x945 >= 1
 c1889_neq944_945: - x944 - x945 >= -1
 c1890_neq945_946: x945 + x946 >= 1
 c1891_neq945_946: - x945 - x946 >= -1
 c1892_neq946_947: x946 + x947 >= 1
 c1893_neq946_947: - x946 - x947 >= -1
 c1894_neq947_948: x947 + x948 >= 1
 c1895_neq947_948: - x947 - x948 >= -1
 c1896_neq948_949: x948 + x949 >= 1
 c1897_neq948_949: - x948 - x949 >= -1
 c1898_neq949_950: x949 + x950 >= 1
 c1899_neq949_950: - x949 - x950 >= -1
 c1900_neq950_951: x950 + x951 >= 1
 c1901_neq950_951: - x950 - x951 >= -1
 c1902_neq951_952: x951 + x952 >= 1
 c1903_neq951_952: - x951 - x952 >= -1
 c1904_neq952_953: x952 + x953 >= 1
 c1905_neq952_953: - x952 - x953 >= -1
 c1906_neq953_954: x953 + x954 >= 1
 c1907_neq953_954: - x953 - x954 >= -1
 c1908_neq954_955: x954 + x955 >= 1
 c1909_neq954_955: - x954 - x955 >= -1
 c1910_neq955_956: x955 + x956 >= 1
 c1911_neq955_956: - x955 - x956 >= -1
 c1912_neq956_957: x956 + x957 >= 1
 c1913_neq956_957: - x956 - x957 >= -1
 c1914_neq957_958: x957 + x958 >= 1
 c1915_neq957_958: - x957 - x958 >= -1
 c1916_neq958_959: x958 + x959 >= 1
 c1917_neq958_959: - x958 - x959 >= -1
 c1918_neq959_960: x959 + x960 >= 1
 c1919_neq959_960: - x959 - x960 >= -1
 c1920_neq960_961: x960 + x961 >= 1
 c1921_neq960_961: - x960 - x961 >= -1
 c1922_neq961_962: x961 + x962 >= 1
 c1923_neq961_962: - x961 - x962 >= -1
 c1924_neq962_963: x962 + x963 >= 1
 c1925_neq962_963: - x962 - x963 >= -1
 c1926_neq963_964: x963 + x964 >= 1
 c1927_neq963_964: - x963 - x964 >= -1
 c1928_neq964_965: x964 + x965 >= 1
 c1929_neq964_965: - x964 - x965 >= -1
 c1930_neq965_966: x965 + x966 >= 1
 c1931_neq965_966: - x965 - x966 >= -1
 c1932_neq966_967: x966 + x967 >= 1
 c1933_neq966_967: - x966 - x967 >= -1
 c1934_neq967_968: x967 + x968 >= 1
 c1935_neq967_968: - x967 - x968 >= -1
 c1936_neq968_969: x968 + x969 >= 1
 c1937_neq968_969: - x968 - x969 >= -1
 c1938_neq969_970: x969 + x970 >= 1
 c1939_neq969_970: - x969 - x970 >= -1
 c1940_neq970_971: x970 + x971 >= 1
 c1941_neq970_971: - x970 - x971 >= -1
 c1942_neq971_972: x971 + x972 >= 1
 c1943_neq971_972: - x971 - x972 >= -1
 c1944_neq972_973: x972 + x973 >= 1
 c1945_neq972_973: - x972 - x973 >= -1
 c1946_neq973_974: x973 + x974 >= 1
 c1947_neq973_974: - x973 - x974 >= -1
 c1948_neq974_975: x974 + x975 >= 1
 c1949_neq974_975: - x974 - x975 >= -1
 c1950_neq975_976: x975 + x976 >= 1
 c1951_neq975_976: - x975 - x976 >= -1
 c1952_neq976_977: x976 + x977 >= 1
 c1953_neq976_977: - x976 - x977 >= -1
 c1954_neq977_978: x977 + x978 >= 1
 c1955_neq977_978: - x977 - x978 >= -1
 c1956_neq978_979: x978 + x979 >= 1
 c1957_neq978_979: - x978 - x979 >= -1
 c1958_neq979_980: x979 + x980 >= 1
 c1959_neq979_980: - x979 - x980 >= -1
 c1960_neq980_981: x980 + x981 >= 1
 c1961_neq980_981: - x980 - x981 >= -1
 c1962_neq981_982: x981 + x982 >= 1
 c1963_neq981_982: - x981 - x982 >= -1
 c1964_neq982_983: x982 + x983 >= 1
 c1965_neq982_983: - x982 - x983 >= -1
 c1966_neq983_984: x983 + x984 >= 1
 c1967_neq983_984: - x983 - x984 >= -1
 c1968_neq984_985: x984 + x985 >= 1
 c1969_neq984_985: - x984 - x985 >= -1
 c1970_neq985_986: x985 + x986 >= 1
 c1971_neq985_986: - x985 - x986 >= -1
 c1972_neq986_987: x986 + x987 >= 1
 c1973_neq986_987: - x986 - x987 >= -1
 c1974_neq987_988: x987 + x988 >= 1
 c1975_neq987_988: - x987 - x988 >= -1
 c1976_neq988_989: x988 + x989 >= 1
 c1977_neq988_989: - x988 - x989 >= -1
 c1978_neq989_990: x989 + x990 >= 1
 c1979_neq989_990: - x989 - x990 >= -1
 c1980_neq990_991: x990 + x991 >= 1
 c1981_neq990_991: - x990 - x991 >= -1
 c1982_neq991_992: x991 + x992 >= 1
 c1983_neq991_992: - x991 - x992 >= -1
 c1984_neq992_993: x992 + x993 >= 1
 c1985_neq992_993: - x992 - x993 >= -1
 c1986_neq993_994: x993 + x994 >= 1
 c1987_neq993_994: - x993 - x994 >= -1
 c1988_neq994_995: x994 + x995 >= 1
 c1989_neq994_995: - x994 - x995 >= -1
 c1990_neq995_996: x995 + x996 >= 1
 c1991_neq995_996: - x995 - x996 >= -1
 c1992_neq996_997: x996 + x997 >= 1
 c1993_neq996_997: - x996 - x997 >= -1
 c1994_neq997_998: x997 + x998 >= 1
 c1995_neq997_998: - x997 - x998 >= -1
 c1996_neq998_999: x998 + x999 >= 1
 c1997_neq998_999: - x998 - x999 >= -1
 c1998_neq999_1000: x999 + x1000 >= 1
 c1999_neq999_1000: - x999 - x1000 >= -1
 c2000_neq1000_1001: x1000 + x1001 >= 1
 c2001_neq1000_1001: - x1000 - x1001 >= -1
 c2002_neq1001_1002: x1001 + x1002 >= 1
 c2003_neq1001_1002: - x1001 - x1002 >= -1
 c2004_neq1002_1003: x1002 + x1003 >= 1
 c2005_neq1002_1003: - x1002 - x1003 >= -1
 c2006_neq1003_1004: x1003 + x1004 >= 1
 c2007_neq1003_1004: - x1003 - x1004 >= -1
 c2008_neq1004_1005: x1004 + x1005 >= 1
 c2009_neq1004_1005: - x1004 - x1005 >= -1
 c2010_neq1005_1006: x1005 + x1006 >= 1
 c2011_neq1005_1006: - x1005 - x1006 >= -1
 c2012_neq1006_1007: x1006 + x1007 >= 1
 c2013_neq1006_1007: - x1006 - x1007 >= -1
 c2014_neq1007_1008: x1007 + x1008 >= 1
 c2015_neq1007_1008: - x1007 - x1008 >= -1
 c2016_neq1008_1009: x1008 + x1009 >= 1
 c2017_neq1008_1009: - x1008 - x1009 >= -1
 c2018_neq1009_1010: x1009 + x1010 >= 1
 c2019_neq1009_1010: - x1009 - x1010 >= -1
 c2020_neq1010_1011: x1010 + x1011 >= 1
 c2021_neq1010_1011: - x1010 - x1011 >= -1
 c2022_neq1011_1012: x1011 + x1012 >= 1
 c2023_neq1011_1012: - x1011 - x1012 >= -1
 c2024_neq1012_1013: x1012 + x1013 >= 1
 c2025_neq1012_1013: - x1012 - x1013 >= -1
 c2026_neq1013_1014: x1013 + x1014 >= 1
 c2027_neq1013_1014: - x1013 - x1014 >= -1
 c2028_neq1014_1015: x1014 + x1015 >= 1
 c2029_neq1014_1015: - x1014 - x1015 >= -1
 c2030_neq1015_1016: x1015 + x1016 >= 1
 c2031_neq1015_1016: - x1015 - x1016 >= -1
 c2032_neq1016_1017: x1016 + x1017 >= 1
 c2033_neq1016_1017: - x1016 - x1017 >= -1
 c2034_neq1017_1018: x1017 + x1018 >= 1
 c2035_neq1017_1018: - x1017 - x1018 >= -1
 c2036_neq1018_1019: x1018 + x1019 >= 1
 c2037_neq1018_1019: - x1018 - x1019 >= -1
 c2038_neq1019_1020: x1019 + x1020 >= 1
 c2039_neq1019_1020: - x1019 - x1020 >= -1
 c2040_neq1020_1021: x1020 + x1021 >= 1
 c2041_neq1020_1021: - x1020 - x1021 >= -1
 c2042_neq1021_1022: x1021 + x1022 >= 1
 c2043_neq1021_1022: - x1021 - x1022 >= -1
 c2044_neq1022_1023: x1022 + x1023 >= 1
 c2045_neq1022_1023: - x1022 - x1023 >= -1
 c2046_neq1023_1024: x1023 + x1024 >= 1
 c2047_neq1023_1024: - x1023 - x1024 >= -1
 c2048_neq1024_0: x1024 + x0 >= 1
 c2049_neq1024_0: - x1024 - x0 >= -1
Binary
 x0
 x1
 x2
 x3
 x4
 x5
 x6
 x7
 x8
 x9
 x10
 x11
 x12
 x13
 x14
 x15
 x16
 x17
 x18
 x19
 x20
 x21
 x22
 x23
 x24
 x25
 x26
 x27
 x28
 x29
 x30
 x31
 x32
 x33
 x34
 x35
 x36
 x37
 x38
 x39
 x40
 x41
 x42
 x43
 x44
 x45
 x46
 x47
 x48
 x49
 x50
 x51
 x52
 x53
 x54
 x55
 x56
 x57
 x58
 x59
 x60
 x61
 x62
 x63
 x64
 x65
 x66
 x67
 x68
 x69
 x70
 x71
 x72
 x73
 x74
 x75
 x76
 x77
 x78
 x79
 x80
 x81
 x82
 x83
 x84
 x85
 x86
 x87
 x88
 x89
 x90
 x91
 x92
 x93
 x94
 x95
 x96
 x97
 x98
 x99
 x100
 x101
 x102
 x103
 x104
 x105
 x106
 x107
 x108
 x109
 x110
 x111
 x112
 x113
 x114
 x115
 x116
 x117
 x118
 x119
 x120
 x121
 x122
 x123
 x124
 x125
 x126
 x127
 x128
 x129
 x130
 x131
 x132
 x133
 x134
 x135
 x136
 x137
 x138
 x139
 x140
 x141
 x142
 x143
 x144
 x145
 x146
 x147
 x148
 x149
 x150
 x151
 x152
 x153
 x154
 x155
 x156
 x157
 x158
 x159
 x160
 x161
 x162
 x163
 x164
 x165
 x166
 x167
 x168
 x169
 x170
 x171
 x172
 x173
 x174
 x175
 x176
 x177
 x178
 x179
 x180
 x181
 x182
 x183
 x184
 x185
 x186
 x187
 x188
 x189
 x190
 x191
 x192
 x193
 x194
 x195
 x196
 x197
 x198
 x199
 x200
 x201
 x202
 x203
 x204
 x205
 x206
 x207
 x208
 x209
 x210
 x211
 x212
 x213
 x214
 x215
 x216
 x217
 x218
 x219
 x220
 x221
 x222
 x223
 x224
 x225
 x226
 x227
 x228
 x229
 x230
 x231
 x232
 x233
 x234
 x235
 x236
 x237
 x238
 x239
 x240
 x241
 x242
 x243
 x244
 x245
 x246
 x247
 x248
 x249
 x250
 x251
 x252
 x253
 x254
 x255
 x256
 x257
 x258
 x259
 x260
 x261
 x262
 x263
 x264
 x265
 x266
 x267
 x268
 x269
 x270
 x271
 x272
 x273
 x274
 x275
 x276
 x277
 x278
 x279
 x280
 x281
 x282
 x283
 x284
 x285
 x286
 x287
 x288
 x289
 x290
 x291
 x292
 x293
 x294
 x295
 x296
 x297
 x298
 x299
 x300
 x301
 x302
 x303
 x304
 x305
 x306
 x307
 x308
 x309
 x310
 x311
 x312
 x313
 x314
 x315
 x316
 x317
 x318
 x319
 x320
 x321
 x322
 x323
 x324
 x325
 x326
 x327
 x328
 x329
 x330
 x331
 x332
 x333
 x334
 x335
 x336
 x337
 x338
 x339
 x340
 x341
 x342
 x343
 x344
 x345
 x346
 x347
 x348
 x349
 x350
 x351
 x352
 x353
 x354
 x355
 x356
 x357
 x358
 x359
 x360
 x361
 x362
 x363
 x364
 x365
 x366
 x367
 x368
 x369
 x370
 x371
 x372
 x373
 x374
 x375
 x376
 x377
 x378
 x379
 x380
 x381
 x382
 x383
 x384
 x385
 x386
 x387
 x388
 x389
 x390
 x391
 x392
 x393
 x394
 x395
 x396
 x397
 x398
 x399
 x400
 x401
 x402
 x403
 x404
 x405
 x406
 x407
 x408
 x409
 x410
 x411
 x412
 x413
 x414
 x415
 x416
 x417
 x418
 x419
 x420
 x421
 x422
 x423
 x424
 x425
 x426
 x427
 x428
 x429
 x430
 x431
 x432
 x433
 x434
 x435
 x436
 x437
 x438
 x439
 x440
 x441
 x442
 x443
 x444
 x445
 x446
 x447
 x448
 x449
 x450
 x451
 x452
 x453
 x454
 x455
 x456
 x457
 x458
 x459
 x460
 x461
 x462
 x463
 x464
 x465
 x466
 x467
 x468
 x469
 x470
 x471
 x472
 x473
 x474
 x475
 x476
 x477
 x478
 x479
 x480
 x481
 x482
 x483
 x484
 x485
 x486
 x487
 x488
 x489
 x490
 x491
 x492
 x493
 x494
 x495
 x496
 x497
 x498
 x499
 x500
 x501
 x502
 x503
 x504
 x505
 x506
 x507
 x508
 x509
 x510
 x511
 x512
 x513
 x514
 x515
 x516
 x517
 x518
 x519
 x520
 x521
 x522
 x523
 x524
 x525
 x526
 x527
 x528
 x529
 x530
 x531
 x532
 x533
 x534
 x535
 x536
 x537
 x538
 x539
 x540
 x541
 x542
 x543
 x544
 x545
 x546
 x547
 x548
 x549
 x550
 x551
 x552
 x553
 x554
 x555
 x556
 x557
 x558
 x559
 x560
 x561
 x562
 x563
 x564
 x565
 x566
 x567
 x568
 x569
 x570
 x571
 x572
 x573
 x574
 x575
 x576
 x577
 x578
 x579
 x580
 x581
 x582
 x583
 x584
 x585
 x586
 x587
 x588
 x589
 x590
 x591
 x592
 x593
 x594
 x595
 x596
 x597
 x598
 x599
 x600
 x601
 x602
 x603
 x604
 x605
 x606
 x607
 x608
 x609
 x610
 x611
 x612
 x613
 x614
 x615
 x616
 x617
 x618
 x619
 x620
 x621
 x622
 x623
 x624
 x625
 x626
 x627
 x628
 x629
 x630
 x631
 x632
 x633
 x634
 x635
 x636
 x637
 x638
 x639
 x640
 x641
 x642
 x643
 x644
 x645
 x646
 x647
 x648
 x649
 x650
 x651
 x652
 x653
 x654
 x655
 x656
 x657
 x658
 x659
 x660
 x661
 x662
 x663
 x664
 x665
 x666
 x667
 x668
 x669
 x670
 x671
 x672
 x673
 x674
 x675
 x676
 x677
 x678
 x679
 x680
 x681
 x682
 x683
 x684
 x685
 x686
 x687
 x688
 x689
 x690
 x691
 x692
 x693
 x694
 x695
 x696
 x697
 x698
 x699
 x700
 x701
 x702
 x703
 x704
 x705
 x706
 x707
 x708
 x709
 x710
 x711
 x712
 x713
 x714
 x715
 x716
 x717
 x718
 x719
 x720
 x721
 x722
 x723
 x724
 x725
 x726
 x727
 x728
 x729
 x730
 x731
 x732
 x733
 x734
 x735
 x736
 x737
 x738
 x739
 x740
 x741
 x742
 x743
 x744
 x745
 x746
 x747
 x748
 x749
 x750
 x751
 x752
 x753
 x754
 x755
 x756
 x757
 x758
 x759
 x760
 x761
 x762
 x763
 x764
 x765
 x766
 x767
 x768
 x769
 x770
 x771
 x772
 x773
 x774
 x775
 x776
 x777
 x778
 x779
 x780
 x781
 x782
 x783
 x784
 x785
 x786
 x787
 x788
 x789
 x790
 x791
 x792
 x793
 x794
 x795
 x796
 x797
 x798
 x799
 x800
 x801
 x802
 x803
 x804
 x805
 x806
 x807
 x808
 x809
 x810
 x811
 x812
 x813
 x814
 x815
 x816
 x817
 x818
 x819
 x820
 x821
 x822
 x823
 x824
 x825
 x826
 x827
 x828
 x829
 x830
 x831
 x832
 x833
 x834
 x835
 x836
 x837
 x838
 x839
 x840
 x841
 x842
 x843
 x844
 x845
 x846
 x847
 x848
 x849
 x850
 x851
 x852
 x853
 x854
 x855
 x856
 x857
 x858
 x859
 x860
 x861
 x862
 x863
 x864
 x865
 x866
 x867
 x868
 x869
 x870
 x871
 x872
 x873
 x874
 x875
 x876
 x877
 x878
 x879
 x880
 x881
 x882
 x883
 x884
 x885
 x886
 x887
 x888
 x889
 x890
 x891
 x892
 x893
 x894
 x895
 x896
 x897
 x898
 x899
 x900
 x901
 x902
 x903
 x904
 x905
 x906
 x907
 x908
 x909
 x910
 x911
 x912
 x913
 x914
 x915
 x916
 x917
 x918
 x919
 x920
 x921
 x922
 x923
 x924
 x925
 x926
 x927
 x928
 x929
 x930
 x931
 x932
 x933
 x934
 x935
 x936
 x937
 x938
 x939
 x940
 x941
 x942
 x943
 x944
 x945
 x946
 x947
 x948
 x949
 x950
 x951
 x952
 x953
 x954
 x955
 x956
 x957
 x958
 x959
 x960
 x961
 x962
 x963
 x964
 x965
 x966
 x967
 x968
 x969
 x970
 x971
 x972
 x973
 x974
 x975
 x976
 x977
 x978
 x979
 x980
 x981
 x982
 x983
 x984
 x985
 x986
 x987
 x988
 x989
 x990
 x991
 x992
 x993
 x994
 x995
 x996
 x997
 x998
 x999
 x1000
 x1001
 x1002
 x1003
 x1004
 x1005
 x1006
 x1007
 x1008
 x1009
 x1010
 x1011
 x1012
 x1013
 x1014
 x1015
 x1016
 x1017
 x1018
 x1019
 x1020
 x1021
 x1022
 x1023
 x1024
End
