c var 1 x0_0
c var 2 x0_1
c var 3 x0_2
c var 4 x0_3
c var 5 x1_0
c var 6 x1_1
c var 7 x1_2
c var 8 x1_3
c forbid h0_0 {'x0_0': 0, 'x0_1': 0}
c forbid h0_0 {'x0_0': 1, 'x0_1': 1}
c forbid h0_1 {'x0_1': 0, 'x0_2': 0}
c forbid h0_1 {'x0_1': 1, 'x0_2': 1}
c forbid h0_2 {'x0_2': 0, 'x0_3': 0}
c forbid h0_2 {'x0_2': 1, 'x0_3': 1}
c forbid h1_0 {'x1_0': 0, 'x1_1': 0}
c forbid h1_0 {'x1_0': 1, 'x1_1': 1}
c forbid h1_1 {'x1_1': 0, 'x1_2': 0}
c forbid h1_1 {'x1_1': 1, 'x1_2': 1}
c forbid h1_2 {'x1_2': 0, 'x1_3': 0}
c forbid h1_2 {'x1_2': 1, 'x1_3': 1}
c forbid v0_0 {'x0_0': 0, 'x1_0': 0}
c forbid v0_0 {'x0_0': 1, 'x1_0': 1}
c forbid v0_1 {'x0_1': 0, 'x1_1': 0}
c forbid v0_1 {'x0_1': 1, 'x1_1': 1}
c forbid v0_2 {'x0_2': 0, 'x1_2': 0}
c forbid v0_2 {'x0_2': 1, 'x1_2': 1}
c forbid v0_3 {'x0_3': 0, 'x1_3': 0}
c forbid v0_3 {'x0_3': 1, 'x1_3': 1}
p cnf 8 20
1 2 0
-1 -2 0
2 3 0
-2 -3 0
3 4 0
-3 -4 0
5 6 0
-5 -6 0
6 7 0
-6 -7 0
7 8 0
-7 -8 0
1 5 0
-1 -5 0
2 6 0
-2 -6 0
3 7 0
-3 -7 0
4 8 0
-4 -8 0
