\ Boolean forbidden-tuple encoding
Minimize
 obj: 0
Subject To
 c0_window0: x0 + x1 + x2 >= 1
 c1_window0: - x0 - x1 - x2 >= -2
 c2_window1: x1 + x2 + x3 >= 1
 c3_window1: - x1 - x2 - x3 >= -2
 c4_window2: x2 + x3 + x4 >= 1
 c5_window2: - x2 - x3 - x4 >= -2
 c6_window3: x3 + x4 + x5 >= 1
 c7_window3: - x3 - x4 - x5 >= -2
 c8_window4: x4 + x5 + x6 >= 1
 c9_window4: - x4 - x5 - x6 >= -2
 c10_window5: x5 + x6 + x7 >= 1
 c11_window5: - x5 - x6 - x7 >= -2
 c12_window6: x6 + x7 + x8 >= 1
 c13_window6: - x6 - x7 - x8 >= -2
 c14_window7: x7 + x8 + x9 >= 1
 c15_window7: - x7 - x8 - x9 >= -2
 c16_window8: x8 + x9 + x10 >= 1
 c17_window8: - x8 - x9 - x10 >= -2
 c18_window9: x9 + x10 + x11 >= 1
 c19_window9: - x9 - x10 - x11 >= -2
 c20_window10: x10 + x11 + x12 >= 1
 c21_window10: - x10 - x11 - x12 >= -2
 c22_window11: x11 + x12 + x13 >= 1
 c23_window11: - x11 - x12 - x13 >= -2
 c24_window12: x12 + x13 + x14 >= 1
 c25_window12: - x12 - x13 - x14 >= -2
 c26_window13: x13 + x14 + x15 >= 1
 c27_window13: - x13 - x14 - x15 >= -2
 c28_window14: x14 + x15 + x16 >= 1
 c29_window14: - x14 - x15 - x16 >= -2
 c30_window15: x15 + x16 + x17 >= 1
 c31_window15: - x15 - x16 - x17 >= -2
 c32_window16: x16 + x17 + x18 >= 1
 c33_window16: - x16 - x17 - x18 >= -2
 c34_window17: x17 + x18 + x19 >= 1
 c35_window17: - x17 - x18 - x19 >= -2
 c36_window18: x18 + x19 + x20 >= 1
 c37_window18: - x18 - x19 - x20 >= -2
 c38_window19: x19 + x20 + x21 >= 1
 c39_window19: - x19 - x20 - x21 >= -2
 c40_window20: x20 + x21 + x22 >= 1
 c41_window20: - x20 - x21 - x22 >= -2
 c42_window21: x21 + x22 + x23 >= 1
 c43_window21: - x21 - x22 - x23 >= -2
 c44_window22: x22 + x23 + x24 >= 1
 c45_window22: - x22 - x23 - x24 >= -2
 c46_window23: x23 + x24 + x25 >= 1
 c47_window23: - x23 - x24 - x25 >= -2
 c48_window24: x24 + x25 + x26 >= 1
 c49_window24: - x24 - x25 - x26 >= -2
 c50_window25: x25 + x26 + x27 >= 1
 c51_window25: - x25 - x26 - x27 >= -2
 c52_window26: x26 + x27 + x28 >= 1
 c53_window26: - x26 - x27 - x28 >= -2
 c54_window27: x27 + x28 + x29 >= 1
 c55_window27: - x27 - x28 - x29 >= -2
 c56_window28: x28 + x29 + x30 >= 1
 c57_window28: - x28 - x29 - x30 >= -2
 c58_window29: x29 + x30 + x31 >= 1
 c59_window29: - x29 - x30 - x31 >= -2
 c60_window30: x30 + x31 + x32 >= 1
 c61_window30: - x30 - x31 - x32 >= -2
 c62_window31: x31 + x32 + x33 >= 1
 c63_window31: - x31 - x32 - x33 >= -2
 c64_window32: x32 + x33 + x34 >= 1
 c65_window32: - x32 - x33 - x34 >= -2
 c66_window33: x33 + x34 + x35 >= 1
 c67_window33: - x33 - x34 - x35 >= -2
 c68_window34: x34 + x35 + x36 >= 1
 c69_window34: - x34 - x35 - x36 >= -2
 c70_window35: x35 + x36 + x37 >= 1
 c71_window35: - x35 - x36 - x37 >= -2
 c72_window36: x36 + x37 + x38 >= 1
 c73_window36: - x36 - x37 - x38 >= -2
 c74_window37: x37 + x38 + x39 >= 1
 c75_window37: - x37 - x38 - x39 >= -2
 c76_window38: x38 + x39 + x40 >= 1
 c77_window38: - x38 - x39 - x40 >= -2
 c78_window39: x39 + x40 + x41 >= 1
 c79_window39: - x39 - x40 - x41 >= -2
 c80_window40: x40 + x41 + x42 >= 1
 c81_window40: - x40 - x41 - x42 >= -2
 c82_window41: x41 + x42 + x43 >= 1
 c83_window41: - x41 - x42 - x43 >= -2
 c84_window42: x42 + x43 + x44 >= 1
 c85_window42: - x42 - x43 - x44 >= -2
 c86_window43: x43 + x44 + x45 >= 1
 c87_window43: - x43 - x44 - x45 >= -2
 c88_window44: x44 + x45 + x46 >= 1
 c89_window44: - x44 - x45 - x46 >= -2
 c90_window45: x45 + x46 + x47 >= 1
 c91_window45: - x45 - x46 - x47 >= -2
 c92_window46: x46 + x47 + x48 >= 1
 c93_window46: - x46 - x47 - x48 >= -2
 c94_window47: x47 + x48 + x49 >= 1
 c95_window47: - x47 - x48 - x49 >= -2
 c96_window48: x48 + x49 + x50 >= 1
 c97_window48: - x48 - x49 - x50 >= -2
 c98_window49: x49 + x50 + x51 >= 1
 c99_window49: - x49 - x50 - x51 >= -2
 c100_window50: x50 + x51 + x52 >= 1
 c101_window50: - x50 - x51 - x52 >= -2
 c102_window51: x51 + x52 + x53 >= 1
 c103_window51: - x51 - x52 - x53 >= -2
 c104_window52: x52 + x53 + x54 >= 1
 c105_window52: - x52 - x53 - x54 >= -2
 c106_window53: x53 + x54 + x55 >= 1
 c107_window53: - x53 - x54 - x55 >= -2
 c108_window54: x54 + x55 + x56 >= 1
 c109_window54: - x54 - x55 - x56 >= -2
 c110_window55: x55 + x56 + x57 >= 1
 c111_window55: - x55 - x56 - x57 >= -2
 c112_window56: x56 + x57 + x58 >= 1
 c113_window56: - x56 - x57 - x58 >= -2
 c114_window57: x57 + x58 + x59 >= 1
 c115_window57: - x57 - x58 - x59 >= -2
 c116_window58: x58 + x59 + x60 >= 1
 c117_window58: - x58 - x59 - x60 >= -2
 c118_window59: x59 + x60 + x61 >= 1
 c119_window59: - x59 - x60 - x61 >= -2
 c120_window60: x60 + x61 + x62 >= 1
 c121_window60: - x60 - x61 - x62 >= -2
 c122_window61: x61 + x62 + x63 >= 1
 c123_window61: - x61 - x62 - x63 >= -2
 c124_window62: x62 + x63 + x64 >= 1
 c125_window62: - x62 - x63 - x64 >= -2
 c126_window63: x63 + x64 + x65 >= 1
 c127_window63: - x63 - x64 - x65 >= -2
 c128_window64: x64 + x65 + x66 >= 1
 c129_window64: - x64 - x65 - x66 >= -2
 c130_window65: x65 + x66 + x67 >= 1
 c131_window65: - x65 - x66 - x67 >= -2
 c132_window66: x66 + x67 + x68 >= 1
 c133_window66: - x66 - x67 - x68 >= -2
 c134_window67: x67 + x68 + x69 >= 1
 c135_window67: - x67 - x68 - x69 >= -2
 c136_window68: x68 + x69 + x70 >= 1
 c137_window68: - x68 - x69 - x70 >= -2
 c138_window69: x69 + x70 + x71 >= 1
 c139_window69: - x69 - x70 - x71 >= -2
 c140_window70: x70 + x71 + x72 >= 1
 c141_window70: - x70 - x71 - x72 >= -2
 c142_window71: x71 + x72 + x73 >= 1
 c143_window71: - x71 - x72 - x73 >= -2
 c144_window72: x72 + x73 + x74 >= 1
 c145_window72: - x72 - x73 - x74 >= -2
 c146_window73: x73 + x74 + x75 >= 1
 c147_window73: - x73 - x74 - x75 >= -2
 c148_window74: x74 + x75 + x76 >= 1
 c149_window74: - x74 - x75 - x76 >= -2
 c150_window75: x75 + x76 + x77 >= 1
 c151_window75: - x75 - x76 - x77 >= -2
 c152_window76: x76 + x77 + x78 >= 1
 c153_window76: - x76 - x77 - x78 >= -2
 c154_window77: x77 + x78 + x79 >= 1
 c155_window77: - x77 - x78 - x79 >= -2
 c156_window78: x78 + x79 + x80 >= 1
 c157_window78: - x78 - x79 - x80 >= -2
 c158_window79: x79 + x80 + x81 >= 1
 c159_window79: - x79 - x80 - x81 >= -2
 c160_window80: x80 + x81 + x82 >= 1
 c161_window80: - x80 - x81 - x82 >= -2
 c162_window81: x81 + x82 + x83 >= 1
 c163_window81: - x81 - x82 - x83 >= -2
 c164_window82: x82 + x83 + x84 >= 1
 c165_window82: - x82 - x83 - x84 >= -2
 c166_window83: x83 + x84 + x85 >= 1
 c167_window83: - x83 - x84 - x85 >= -2
 c168_window84: x84 + x85 + x86 >= 1
 c169_window84: - x84 - x85 - x86 >= -2
 c170_window85: x85 + x86 + x87 >= 1
 c171_window85: - x85 - x86 - x87 >= -2
 c172_window86: x86 + x87 + x88 >= 1
 c173_window86: - x86 - x87 - x88 >= -2
 c174_window87: x87 + x88 + x89 >= 1
 c175_window87: - x87 - x88 - x89 >= -2
 c176_window88: x88 + x89 + x90 >= 1
 c177_window88: - x88 - x89 - x90 >= -2
 c178_window89: x89 + x90 + x91 >= 1
 c179_window89: - x89 - x90 - x91 >= -2
 c180_window90: x90 + x91 + x92 >= 1
 c181_window90: - x90 - x91 - x92 >= -2
 c182_window91: x91 + x92 + x93 >= 1
 c183_window91: - x91 - x92 - x93 >= -2
 c184_window92: x92 + x93 + x94 >= 1
 c185_window92: - x92 - x93 - x94 >= -2
 c186_window93: x93 + x94 + x95 >= 1
 c187_window93: - x93 - x94 - x95 >= -2
 c188_window94: x94 + x95 + x96 >= 1
 c189_window94: - x94 - x95 - x96 >= -2
 c190_window95: x95 + x96 + x97 >= 1
 c191_window95: - x95 - x96 - x97 >= -2
 c192_window96: x96 + x97 + x98 >= 1
 c193_window96: - x96 - x97 - x98 >= -2
 c194_window97: x97 + x98 + x99 >= 1
 c195_window97: - x97 - x98 - x99 >= -2
 c196_window98: x98 + x99 + x100 >= 1
 c197_window98: - x98 - x99 - x100 >= -2
 c198_window99: x99 + x100 + x101 >= 1
 c199_window99: - x99 - x100 - x101 >= -2
 c200_window100: x100 + x101 + x102 >= 1
 c201_window100: - x100 - x101 - x102 >= -2
 c202_window101: x101 + x102 + x103 >= 1
 c203_window101: - x101 - x102 - x103 >= -2
 c204_window102: x102 + x103 + x104 >= 1
 c205_window102: - x102 - x103 - x104 >= -2
 c206_window103: x103 + x104 + x105 >= 1
 c207_window103: - x103 - x104 - x105 >= -2
 c208_window104: x104 + x105 + x106 >= 1
 c209_window104: - x104 - x105 - x106 >= -2
 c210_window105: x105 + x106 + x107 >= 1
 c211_window105: - x105 - x106 - x107 >= -2
 c212_window106: x106 + x107 + x108 >= 1
 c213_window106: - x106 - x107 - x108 >= -2
 c214_window107: x107 + x108 + x109 >= 1
 c215_window107: - x107 - x108 - x109 >= -2
 c216_window108: x108 + x109 + x110 >= 1
 c217_window108: - x108 - x109 - x110 >= -2
 c218_window109: x109 + x110 + x111 >= 1
 c219_window109: - x109 - x110 - x111 >= -2
 c220_window110: x110 + x111 + x112 >= 1
 c221_window110: - x110 - x111 - x112 >= -2
 c222_window111: x111 + x112 + x113 >= 1
 c223_window111: - x111 - x112 - x113 >= -2
 c224_window112: x112 + x113 + x114 >= 1
 c225_window112: - x112 - x113 - x114 >= -2
 c226_window113: x113 + x114 + x115 >= 1
 c227_window113: - x113 - x114 - x115 >= -2
 c228_window114: x114 + x115 + x116 >= 1
 c229_window114: - x114 - x115 - x116 >= -2
 c230_window115: x115 + x116 + x117 >= 1
 c231_window115: - x115 - x116 - x117 >= -2
 c232_window116: x116 + x117 + x118 >= 1
 c233_window116: - x116 - x117 - x118 >= -2
 c234_window117: x117 + x118 + x119 >= 1
 c235_window117: - x117 - x118 - x119 >= -2
 c236_window118: x118 + x119 + x120 >= 1
 c237_window118: - x118 - x119 - x120 >= -2
 c238_window119: x119 + x120 + x121 >= 1
 c239_window119: - x119 - x120 - x121 >= -2
 c240_window120: x120 + x121 + x122 >= 1
 c241_window120: - x120 - x121 - x122 >= -2
 c242_window121: x121 + x122 + x123 >= 1
 c243_window121: - x121 - x122 - x123 >= -2
 c244_window122: x122 + x123 + x124 >= 1
 c245_window122: - x122 - x123 - x124 >= -2
 c246_window123: x123 + x124 + x125 >= 1
 c247_window123: - x123 - x124 - x125 >= -2
 c248_window124: x124 + x125 + x126 >= 1
 c249_window124: - x124 - x125 - x126 >= -2
 c250_window125: x125 + x126 + x127 >= 1
 c251_window125: - x125 - x126 - x127 >= -2
Binary
 x0
 x1
 x2
 x3
 x4
 x5
 x6
 x7
 x8
 x9
 x10
 x11
 x12
 x13
 x14
 x15
 x16
 x17
 x18
 x19
 x20
 x21
 x22
 x23
 x24
 x25
 x26
 x27
 x28
 x29
 x30
 x31
 x32
 x33
 x34
 x35
 x36
 x37
 x38
 x39
 x40
 x41
 x42
 x43
 x44
 x45
 x46
 x47
 x48
 x49
 x50
 x51
 x52
 x53
 x54
 x55
 x56
 x57
 x58
 x59
 x60
 x61
 x62
 x63
 x64
 x65
 x66
 x67
 x68
 x69
 x70
 x71
 x72
 x73
 x74
 x75
 x76
 x77
 x78
 x79
 x80
 x81
 x82
 x83
 x84
 x85
 x86
 x87
 x88
 x89
 x90
 x91
 x92
 x93
 x94
 x95
 x96
 x97
 x98
 x99
 x100
 x101
 x102
 x103
 x104
 x105
 x106
 x107
 x108
 x109
 x110
 x111
 x112
 x113
 x114
 x115
 x116
 x117
 x118
 x119
 x120
 x121
 x122
 x123
 x124
 x125
 x126
 x127
End
