\ Boolean forbidden-tuple encoding
Minimize
 obj: 0
Subject To
 c0_neq0_1: x0 + x1 >= 1
 c1_neq0_1: - x0 - x1 >= -1
 c2_neq1_2: x1 + x2 >= 1
 c3_neq1_2: - x1 - x2 >= -1
 c4_neq2_3: x2 + x3 >= 1
 c5_neq2_3: - x2 - x3 >= -1
 c6_neq3_4: x3 + x4 >= 1
 c7_neq3_4: - x3 - x4 >= -1
 c8_neq4_5: x4 + x5 >= 1
 c9_neq4_5: - x4 - x5 >= -1
 c10_neq5_6: x5 + x6 >= 1
 c11_neq5_6: - x5 - x6 >= -1
 c12_neq6_7: x6 + x7 >= 1
 c13_neq6_7: - x6 - x7 >= -1
 c14_neq7_8: x7 + x8 >= 1
 c15_neq7_8: - x7 - x8 >= -1
 c16_neq8_9: x8 + x9 >= 1
 c17_neq8_9: - x8 - x9 >= -1
 c18_neq9_10: x9 + x10 >= 1
 c19_neq9_10: - x9 - x10 >= -1
 c20_neq10_11: x10 + x11 >= 1
 c21_neq10_11: - x10 - x11 >= -1
 c22_neq11_12: x11 + x12 >= 1
 c23_neq11_12: - x11 - x12 >= -1
 c24_neq12_13: x12 + x13 >= 1
 c25_neq12_13: - x12 - x13 >= -1
 c26_neq13_14: x13 + x14 >= 1
 c27_neq13_14: - x13 - x14 >= -1
 c28_neq14_15: x14 + x15 >= 1
 c29_neq14_15: - x14 - x15 >= -1
 c30_neq15_16: x15 + x16 >= 1
 c31_neq15_16: - x15 - x16 >= -1
 c32_neq16_17: x16 + x17 >= 1
 c33_neq16_17: - x16 - x17 >= -1
 c34_neq17_18: x17 + x18 >= 1
 c35_neq17_18: - x17 - x18 >= -1
 c36_neq18_19: x18 + x19 >= 1
 c37_neq18_19: - x18 - x19 >= -1
 c38_neq19_20: x19 + x20 >= 1
 c39_neq19_20: - x19 - x20 >= -1
 c40_neq20_21: x20 + x21 >= 1
 c41_neq20_21: - x20 - x21 >= -1
 c42_neq21_22: x21 + x22 >= 1
 c43_neq21_22: - x21 - x22 >= -1
 c44_neq22_23: x22 + x23 >= 1
 c45_neq22_23: - x22 - x23 >= -1
 c46_neq23_24: x23 + x24 >= 1
 c47_neq23_24: - x23 - x24 >= -1
 c48_neq24_25: x24 + x25 >= 1
 c49_neq24_25: - x24 - x25 >= -1
 c50_neq25_26: x25 + x26 >= 1
 c51_neq25_26: - x25 - x26 >= -1
 c52_neq26_27: x26 + x27 >= 1
 c53_neq26_27: - x26 - x27 >= -1
 c54_neq27_28: x27 + x28 >= 1
 c55_neq27_28: - x27 - x28 >= -1
 c56_neq28_29: x28 + x29 >= 1
 c57_neq28_29: - x28 - x29 >= -1
 c58_neq29_30: x29 + x30 >= 1
 c59_neq29_30: - x29 - x30 >= -1
 c60_neq30_31: x30 + x31 >= 1
 c61_neq30_31: - x30 - x31 >= -1
 c62_neq31_32: x31 + x32 >= 1
 c63_neq31_32: - x31 - x32 >= -1
 c64_neq32_33: x32 + x33 >= 1
 c65_neq32_33: - x32 - x33 >= -1
 c66_neq33_34: x33 + x34 >= 1
 c67_neq33_34: - x33 - x34 >= -1
 c68_neq34_35: x34 + x35 >= 1
 c69_neq34_35: - x34 - x35 >= -1
 c70_neq35_36: x35 + x36 >= 1
 c71_neq35_36: - x35 - x36 >= -1
 c72_neq36_37: x36 + x37 >= 1
 c73_neq36_37: - x36 - x37 >= -1
 c74_neq37_38: x37 + x38 >= 1
 c75_neq37_38: - x37 - x38 >= -1
 c76_neq38_39: x38 + x39 >= 1
 c77_neq38_39: - x38 - x39 >= -1
 c78_neq39_40: x39 + x40 >= 1
 c79_neq39_40: - x39 - x40 >= -1
 c80_neq40_41: x40 + x41 >= 1
 c81_neq40_41: - x40 - x41 >= -1
 c82_neq41_42: x41 + x42 >= 1
 c83_neq41_42: - x41 - x42 >= -1
 c84_neq42_43: x42 + x43 >= 1
 c85_neq42_43: - x42 - x43 >= -1
 c86_neq43_44: x43 + x44 >= 1
 c87_neq43_44: - x43 - x44 >= -1
 c88_neq44_45: x44 + x45 >= 1
 c89_neq44_45: - x44 - x45 >= -1
 c90_neq45_46: x45 + x46 >= 1
 c91_neq45_46: - x45 - x46 >= -1
 c92_neq46_47: x46 + x47 >= 1
 c93_neq46_47: - x46 - x47 >= -1
 c94_neq47_48: x47 + x48 >= 1
 c95_neq47_48: - x47 - x48 >= -1
 c96_neq48_49: x48 + x49 >= 1
 c97_neq48_49: - x48 - x49 >= -1
 c98_neq49_50: x49 + x50 >= 1
 c99_neq49_50: - x49 - x50 >= -1
 c100_neq50_51: x50 + x51 >= 1
 c101_neq50_51: - x50 - x51 >= -1
 c102_neq51_52: x51 + x52 >= 1
 c103_neq51_52: - x51 - x52 >= -1
 c104_neq52_53: x52 + x53 >= 1
 c105_neq52_53: - x52 - x53 >= -1
 c106_neq53_54: x53 + x54 >= 1
 c107_neq53_54: - x53 - x54 >= -1
 c108_neq54_55: x54 + x55 >= 1
 c109_neq54_55: - x54 - x55 >= -1
 c110_neq55_56: x55 + x56 >= 1
 c111_neq55_56: - x55 - x56 >= -1
 c112_neq56_57: x56 + x57 >= 1
 c113_neq56_57: - x56 - x57 >= -1
 c114_neq57_58: x57 + x58 >= 1
 c115_neq57_58: - x57 - x58 >= -1
 c116_neq58_59: x58 + x59 >= 1
 c117_neq58_59: - x58 - x59 >= -1
 c118_neq59_60: x59 + x60 >= 1
 c119_neq59_60: - x59 - x60 >= -1
 c120_neq60_61: x60 + x61 >= 1
 c121_neq60_61: - x60 - x61 >= -1
 c122_neq61_62: x61 + x62 >= 1
 c123_neq61_62: - x61 - x62 >= -1
 c124_neq62_63: x62 + x63 >= 1
 c125_neq62_63: - x62 - x63 >= -1
 c126_neq63_64: x63 + x64 >= 1
 c127_neq63_64: - x63 - x64 >= -1
 c128_neq64_65: x64 + x65 >= 1
 c129_neq64_65: - x64 - x65 >= -1
 c130_neq65_66: x65 + x66 >= 1
 c131_neq65_66: - x65 - x66 >= -1
 c132_neq66_67: x66 + x67 >= 1
 c133_neq66_67: - x66 - x67 >= -1
 c134_neq67_68: x67 + x68 >= 1
 c135_neq67_68: - x67 - x68 >= -1
 c136_neq68_69: x68 + x69 >= 1
 c137_neq68_69: - x68 - x69 >= -1
 c138_neq69_70: x69 + x70 >= 1
 c139_neq69_70: - x69 - x70 >= -1
 c140_neq70_71: x70 + x71 >= 1
 c141_neq70_71: - x70 - x71 >= -1
 c142_neq71_72: x71 + x72 >= 1
 c143_neq71_72: - x71 - x72 >= -1
 c144_neq72_73: x72 + x73 >= 1
 c145_neq72_73: - x72 - x73 >= -1
 c146_neq73_74: x73 + x74 >= 1
 c147_neq73_74: - x73 - x74 >= -1
 c148_neq74_75: x74 + x75 >= 1
 c149_neq74_75: - x74 - x75 >= -1
 c150_neq75_76: x75 + x76 >= 1
 c151_neq75_76: - x75 - x76 >= -1
 c152_neq76_77: x76 + x77 >= 1
 c153_neq76_77: - x76 - x77 >= -1
 c154_neq77_78: x77 + x78 >= 1
 c155_neq77_78: - x77 - x78 >= -1
 c156_neq78_79: x78 + x79 >= 1
 c157_neq78_79: - x78 - x79 >= -1
 c158_neq79_80: x79 + x80 >= 1
 c159_neq79_80: - x79 - x80 >= -1
 c160_neq80_81: x80 + x81 >= 1
 c161_neq80_81: - x80 - x81 >= -1
 c162_neq81_82: x81 + x82 >= 1
 c163_neq81_82: - x81 - x82 >= -1
 c164_neq82_83: x82 + x83 >= 1
 c165_neq82_83: - x82 - x83 >= -1
 c166_neq83_84: x83 + x84 >= 1
 c167_neq83_84: - x83 - x84 >= -1
 c168_neq84_85: x84 + x85 >= 1
 c169_neq84_85: - x84 - x85 >= -1
 c170_neq85_86: x85 + x86 >= 1
 c171_neq85_86: - x85 - x86 >= -1
 c172_neq86_87: x86 + x87 >= 1
 c173_neq86_87: - x86 - x87 >= -1
 c174_neq87_88: x87 + x88 >= 1
 c175_neq87_88: - x87 - x88 >= -1
 c176_neq88_89: x88 + x89 >= 1
 c177_neq88_89: - x88 - x89 >= -1
 c178_neq89_90: x89 + x90 >= 1
 c179_neq89_90: - x89 - x90 >= -1
 c180_neq90_91: x90 + x91 >= 1
 c181_neq90_91: - x90 - x91 >= -1
 c182_neq91_92: x91 + x92 >= 1
 c183_neq91_92: - x91 - x92 >= -1
 c184_neq92_93: x92 + x93 >= 1
 c185_neq92_93: - x92 - x93 >= -1
 c186_neq93_94: x93 + x94 >= 1
 c187_neq93_94: - x93 - x94 >= -1
 c188_neq94_95: x94 + x95 >= 1
 c189_neq94_95: - x94 - x95 >= -1
 c190_neq95_96: x95 + x96 >= 1
 c191_neq95_96: - x95 - x96 >= -1
 c192_neq96_97: x96 + x97 >= 1
 c193_neq96_97: - x96 - x97 >= -1
 c194_neq97_98: x97 + x98 >= 1
 c195_neq97_98: - x97 - x98 >= -1
 c196_neq98_99: x98 + x99 >= 1
 c197_neq98_99: - x98 - x99 >= -1
 c198_neq99_100: x99 + x100 >= 1
 c199_neq99_100: - x99 - x100 >= -1
 c200_neq100_101: x100 + x101 >= 1
 c201_neq100_101: - x100 - x101 >= -1
 c202_neq101_102: x101 + x102 >= 1
 c203_neq101_102: - x101 - x102 >= -1
 c204_neq102_103: x102 + x103 >= 1
 c205_neq102_103: - x102 - x103 >= -1
 c206_neq103_104: x103 + x104 >= 1
 c207_neq103_104: - x103 - x104 >= -1
 c208_neq104_105: x104 + x105 >= 1
 c209_neq104_105: - x104 - x105 >= -1
 c210_neq105_106: x105 + x106 >= 1
 c211_neq105_106: - x105 - x106 >= -1
 c212_neq106_107: x106 + x107 >= 1
 c213_neq106_107: - x106 - x107 >= -1
 c214_neq107_108: x107 + x108 >= 1
 c215_neq107_108: - x107 - x108 >= -1
 c216_neq108_109: x108 + x109 >= 1
 c217_neq108_109: - x108 - x109 >= -1
 c218_neq109_110: x109 + x110 >= 1
 c219_neq109_110: - x109 - x110 >= -1
 c220_neq110_111: x110 + x111 >= 1
 c221_neq110_111: - x110 - x111 >= -1
 c222_neq111_112: x111 + x112 >= 1
 c223_neq111_112: - x111 - x112 >= -1
 c224_neq112_113: x112 + x113 >= 1
 c225_neq112_113: - x112 - x113 >= -1
 c226_neq113_114: x113 + x114 >= 1
 c227_neq113_114: - x113 - x114 >= -1
 c228_neq114_115: x114 + x115 >= 1
 c229_neq114_115: - x114 - x115 >= -1
 c230_neq115_116: x115 + x116 >= 1
 c231_neq115_116: - x115 - x116 >= -1
 c232_neq116_117: x116 + x117 >= 1
 c233_neq116_117: - x116 - x117 >= -1
 c234_neq117_118: x117 + x118 >= 1
 c235_neq117_118: - x117 - x118 >= -1
 c236_neq118_119: x118 + x119 >= 1
 c237_neq118_119: - x118 - x119 >= -1
 c238_neq119_120: x119 + x120 >= 1
 c239_neq119_120: - x119 - x120 >= -1
 c240_neq120_121: x120 + x121 >= 1
 c241_neq120_121: - x120 - x121 >= -1
 c242_neq121_122: x121 + x122 >= 1
 c243_neq121_122: - x121 - x122 >= -1
 c244_neq122_123: x122 + x123 >= 1
 c245_neq122_123: - x122 - x123 >= -1
 c246_neq123_124: x123 + x124 >= 1
 c247_neq123_124: - x123 - x124 >= -1
 c248_neq124_125: x124 + x125 >= 1
 c249_neq124_125: - x124 - x125 >= -1
 c250_neq125_126: x125 + x126 >= 1
 c251_neq125_126: - x125 - x126 >= -1
 c252_neq126_127: x126 + x127 >= 1
 c253_neq126_127: - x126 - x127 >= -1
Binary
 x0
 x1
 x2
 x3
 x4
 x5
 x6
 x7
 x8
 x9
 x10
 x11
 x12
 x13
 x14
 x15
 x16
 x17
 x18
 x19
 x20
 x21
 x22
 x23
 x24
 x25
 x26
 x27
 x28
 x29
 x30
 x31
 x32
 x33
 x34
 x35
 x36
 x37
 x38
 x39
 x40
 x41
 x42
 x43
 x44
 x45
 x46
 x47
 x48
 x49
 x50
 x51
 x52
 x53
 x54
 x55
 x56
 x57
 x58
 x59
 x60
 x61
 x62
 x63
 x64
 x65
 x66
 x67
 x68
 x69
 x70
 x71
 x72
 x73
 x74
 x75
 x76
 x77
 x78
 x79
 x80
 x81
 x82
 x83
 x84
 x85
 x86
 x87
 x88
 x89
 x90
 x91
 x92
 x93
 x94
 x95
 x96
 x97
 x98
 x99
 x100
 x101
 x102
 x103
 x104
 x105
 x106
 x107
 x108
 x109
 x110
 x111
 x112
 x113
 x114
 x115
 x116
 x117
 x118
 x119
 x120
 x121
 x122
 x123
 x124
 x125
 x126
 x127
End
