\ Boolean forbidden-tuple encoding
Minimize
 obj: 0
Subject To
 c0_neq0_1: x0 + x1 >= 1
 c1_neq0_1: - x0 - x1 >= -1
 c2_neq1_2: x1 + x2 >= 1
 c3_neq1_2: - x1 - x2 >= -1
 c4_neq2_3: x2 + x3 >= 1
 c5_neq2_3: - x2 - x3 >= -1
 c6_neq3_4: x3 + x4 >= 1
 c7_neq3_4: - x3 - x4 >= -1
 c8_neq4_5: x4 + x5 >= 1
 c9_neq4_5: - x4 - x5 >= -1
 c10_neq5_6: x5 + x6 >= 1
 c11_neq5_6: - x5 - x6 >= -1
 c12_neq6_7: x6 + x7 >= 1
 c13_neq6_7: - x6 - x7 >= -1
 c14_neq7_8: x7 + x8 >= 1
 c15_neq7_8: - x7 - x8 >= -1
 c16_neq8_9: x8 + x9 >= 1
 c17_neq8_9: - x8 - x9 >= -1
 c18_neq9_10: x9 + x10 >= 1
 c19_neq9_10: - x9 - x10 >= -1
 c20_neq10_11: x10 + x11 >= 1
 c21_neq10_11: - x10 - x11 >= -1
 c22_neq11_12: x11 + x12 >= 1
 c23_neq11_12: - x11 - x12 >= -1
 c24_neq12_13: x12 + x13 >= 1
 c25_neq12_13: - x12 - x13 >= -1
 c26_neq13_14: x13 + x14 >= 1
 c27_neq13_14: - x13 - x14 >= -1
 c28_neq14_15: x14 + x15 >= 1
 c29_neq14_15: - x14 - x15 >= -1
 c30_neq15_16: x15 + x16 >= 1
 c31_neq15_16: - x15 - x16 >= -1
 c32_neq16_17: x16 + x17 >= 1
 c33_neq16_17: - x16 - x17 >= -1
 c34_neq17_18: x17 + x18 >= 1
 c35_neq17_18: - x17 - x18 >= -1
 c36_neq18_19: x18 + x19 >= 1
 c37_neq18_19: - x18 - x19 >= -1
 c38_neq19_20: x19 + x20 >= 1
 c39_neq19_20: - x19 - x20 >= -1
 c40_neq20_21: x20 + x21 >= 1
 c41_neq20_21: - x20 - x21 >= -1
 c42_neq21_22: x21 + x22 >= 1
 c43_neq21_22: - x21 - x22 >= -1
 c44_neq22_23: x22 + x23 >= 1
 c45_neq22_23: - x22 - x23 >= -1
 c46_neq23_24: x23 + x24 >= 1
 c47_neq23_24: - x23 - x24 >= -1
 c48_neq24_25: x24 + x25 >= 1
 c49_neq24_25: - x24 - x25 >= -1
 c50_neq25_26: x25 + x26 >= 1
 c51_neq25_26: - x25 - x26 >= -1
 c52_neq26_27: x26 + x27 >= 1
 c53_neq26_27: - x26 - x27 >= -1
 c54_neq27_28: x27 + x28 >= 1
 c55_neq27_28: - x27 - x28 >= -1
 c56_neq28_29: x28 + x29 >= 1
 c57_neq28_29: - x28 - x29 >= -1
 c58_neq29_30: x29 + x30 >= 1
 c59_neq29_30: - x29 - x30 >= -1
 c60_neq30_31: x30 + x31 >= 1
 c61_neq30_31: - x30 - x31 >= -1
 c62_neq31_32: x31 + x32 >= 1
 c63_neq31_32: - x31 - x32 >= -1
 c64_neq32_33: x32 + x33 >= 1
 c65_neq32_33: - x32 - x33 >= -1
 c66_neq33_34: x33 + x34 >= 1
 c67_neq33_34: - x33 - x34 >= -1
 c68_neq34_35: x34 + x35 >= 1
 c69_neq34_35: - x34 - x35 >= -1
 c70_neq35_36: x35 + x36 >= 1
 c71_neq35_36: - x35 - x36 >= -1
 c72_neq36_37: x36 + x37 >= 1
 c73_neq36_37: - x36 - x37 >= -1
 c74_neq37_38: x37 + x38 >= 1
 c75_neq37_38: - x37 - x38 >= -1
 c76_neq38_39: x38 + x39 >= 1
 c77_neq38_39: - x38 - x39 >= -1
 c78_neq39_40: x39 + x40 >= 1
 c79_neq39_40: - x39 - x40 >= -1
 c80_neq40_41: x40 + x41 >= 1
 c81_neq40_41: - x40 - x41 >= -1
 c82_neq41_42: x41 + x42 >= 1
 c83_neq41_42: - x41 - x42 >= -1
 c84_neq42_43: x42 + x43 >= 1
 c85_neq42_43: - x42 - x43 >= -1
 c86_neq43_44: x43 + x44 >= 1
 c87_neq43_44: - x43 - x44 >= -1
 c88_neq44_45: x44 + x45 >= 1
 c89_neq44_45: - x44 - x45 >= -1
 c90_neq45_46: x45 + x46 >= 1
 c91_neq45_46: - x45 - x46 >= -1
 c92_neq46_47: x46 + x47 >= 1
 c93_neq46_47: - x46 - x47 >= -1
 c94_neq47_48: x47 + x48 >= 1
 c95_neq47_48: - x47 - x48 >= -1
 c96_neq48_49: x48 + x49 >= 1
 c97_neq48_49: - x48 - x49 >= -1
 c98_neq49_50: x49 + x50 >= 1
 c99_neq49_50: - x49 - x50 >= -1
 c100_neq50_51: x50 + x51 >= 1
 c101_neq50_51: - x50 - x51 >= -1
 c102_neq51_52: x51 + x52 >= 1
 c103_neq51_52: - x51 - x52 >= -1
 c104_neq52_53: x52 + x53 >= 1
 c105_neq52_53: - x52 - x53 >= -1
 c106_neq53_54: x53 + x54 >= 1
 c107_neq53_54: - x53 - x54 >= -1
 c108_neq54_55: x54 + x55 >= 1
 c109_neq54_55: - x54 - x55 >= -1
 c110_neq55_56: x55 + x56 >= 1
 c111_neq55_56: - x55 - x56 >= -1
 c112_neq56_57: x56 + x57 >= 1
 c113_neq56_57: - x56 - x57 >= -1
 c114_neq57_58: x57 + x58 >= 1
 c115_neq57_58: - x57 - x58 >= -1
 c116_neq58_59: x58 + x59 >= 1
 c117_neq58_59: - x58 - x59 >= -1
 c118_neq59_60: x59 + x60 >= 1
 c119_neq59_60: - x59 - x60 >= -1
 c120_neq60_61: x60 + x61 >= 1
 c121_neq60_61: - x60 - x61 >= -1
 c122_neq61_62: x61 + x62 >= 1
 c123_neq61_62: - x61 - x62 >= -1
 c124_neq62_63: x62 + x63 >= 1
 c125_neq62_63: - x62 - x63 >= -1
 c126_neq63_64: x63 + x64 >= 1
 c127_neq63_64: - x63 - x64 >= -1
 c128_neq64_65: x64 + x65 >= 1
 c129_neq64_65: - x64 - x65 >= -1
 c130_neq65_66: x65 + x66 >= 1
 c131_neq65_66: - x65 - x66 >= -1
 c132_neq66_67: x66 + x67 >= 1
 c133_neq66_67: - x66 - x67 >= -1
 c134_neq67_68: x67 + x68 >= 1
 c135_neq67_68: - x67 - x68 >= -1
 c136_neq68_69: x68 + x69 >= 1
 c137_neq68_69: - x68 - x69 >= -1
 c138_neq69_70: x69 + x70 >= 1
 c139_neq69_70: - x69 - x70 >= -1
 c140_neq70_71: x70 + x71 >= 1
 c141_neq70_71: - x70 - x71 >= -1
 c142_neq71_72: x71 + x72 >= 1
 c143_neq71_72: - x71 - x72 >= -1
 c144_neq72_73: x72 + x73 >= 1
 c145_neq72_73: - x72 - x73 >= -1
 c146_neq73_74: x73 + x74 >= 1
 c147_neq73_74: - x73 - x74 >= -1
 c148_neq74_75: x74 + x75 >= 1
 c149_neq74_75: - x74 - x75 >= -1
 c150_neq75_76: x75 + x76 >= 1
 c151_neq75_76: - x75 - x76 >= -1
 c152_neq76_77: x76 + x77 >= 1
 c153_neq76_77: - x76 - x77 >= -1
 c154_neq77_78: x77 + x78 >= 1
 c155_neq77_78: - x77 - x78 >= -1
 c156_neq78_79: x78 + x79 >= 1
 c157_neq78_79: - x78 - x79 >= -1
 c158_neq79_80: x79 + x80 >= 1
 c159_neq79_80: - x79 - x80 >= -1
 c160_neq80_81: x80 + x81 >= 1
 c161_neq80_81: - x80 - x81 >= -1
 c162_neq81_82: x81 + x82 >= 1
 c163_neq81_82: - x81 - x82 >= -1
 c164_neq82_83: x82 + x83 >= 1
 c165_neq82_83: - x82 - x83 >= -1
 c166_neq83_84: x83 + x84 >= 1
 c167_neq83_84: - x83 - x84 >= -1
 c168_neq84_85: x84 + x85 >= 1
 c169_neq84_85: - x84 - x85 >= -1
 c170_neq85_86: x85 + x86 >= 1
 c171_neq85_86: - x85 - x86 >= -1
 c172_neq86_87: x86 + x87 >= 1
 c173_neq86_87: - x86 - x87 >= -1
 c174_neq87_88: x87 + x88 >= 1
 c175_neq87_88: - x87 - x88 >= -1
 c176_neq88_89: x88 + x89 >= 1
 c177_neq88_89: - x88 - x89 >= -1
 c178_neq89_90: x89 + x90 >= 1
 c179_neq89_90: - x89 - x90 >= -1
 c180_neq90_91: x90 + x91 >= 1
 c181_neq90_91: - x90 - x91 >= -1
 c182_neq91_92: x91 + x92 >= 1
 c183_neq91_92: - x91 - x92 >= -1
 c184_neq92_93: x92 + x93 >= 1
 c185_neq92_93: - x92 - x93 >= -1
 c186_neq93_94: x93 + x94 >= 1
 c187_neq93_94: - x93 - x94 >= -1
 c188_neq94_95: x94 + x95 >= 1
 c189_neq94_95: - x94 - x95 >= -1
 c190_neq95_96: x95 + x96 >= 1
 c191_neq95_96: - x95 - x96 >= -1
 c192_neq96_97: x96 + x97 >= 1
 c193_neq96_97: - x96 - x97 >= -1
 c194_neq97_98: x97 + x98 >= 1
 c195_neq97_98: - x97 - x98 >= -1
 c196_neq98_99: x98 + x99 >= 1
 c197_neq98_99: - x98 - x99 >= -1
 c198_neq99_100: x99 + x100 >= 1
 c199_neq99_100: - x99 - x100 >= -1
 c200_neq100_101: x100 + x101 >= 1
 c201_neq100_101: - x100 - x101 >= -1
 c202_neq101_102: x101 + x102 >= 1
 c203_neq101_102: - x101 - x102 >= -1
 c204_neq102_103: x102 + x103 >= 1
 c205_neq102_103: - x102 - x103 >= -1
 c206_neq103_104: x103 + x104 >= 1
 c207_neq103_104: - x103 - x104 >= -1
 c208_neq104_105: x104 + x105 >= 1
 c209_neq104_105: - x104 - x105 >= -1
 c210_neq105_106: x105 + x106 >= 1
 c211_neq105_106: - x105 - x106 >= -1
 c212_neq106_107: x106 + x107 >= 1
 c213_neq106_107: - x106 - x107 >= -1
 c214_neq107_108: x107 + x108 >= 1
 c215_neq107_108: - x107 - x108 >= -1
 c216_neq108_109: x108 + x109 >= 1
 c217_neq108_109: - x108 - x109 >= -1
 c218_neq109_110: x109 + x110 >= 1
 c219_neq109_110: - x109 - x110 >= -1
 c220_neq110_111: x110 + x111 >= 1
 c221_neq110_111: - x110 - x111 >= -1
 c222_neq111_112: x111 + x112 >= 1
 c223_neq111_112: - x111 - x112 >= -1
 c224_neq112_113: x112 + x113 >= 1
 c225_neq112_113: - x112 - x113 >= -1
 c226_neq113_114: x113 + x114 >= 1
 c227_neq113_114: - x113 - x114 >= -1
 c228_neq114_115: x114 + x115 >= 1
 c229_neq114_115: - x114 - x115 >= -1
 c230_neq115_116: x115 + x116 >= 1
 c231_neq115_116: - x115 - x116 >= -1
 c232_neq116_117: x116 + x117 >= 1
 c233_neq116_117: - x116 - x117 >= -1
 c234_neq117_118: x117 + x118 >= 1
 c235_neq117_118: - x117 - x118 >= -1
 c236_neq118_119: x118 + x119 >= 1
 c237_neq118_119: - x118 - x119 >= -1
 c238_neq119_120: x119 + x120 >= 1
 c239_neq119_120: - x119 - x120 >= -1
 c240_neq120_121: x120 + x121 >= 1
 c241_neq120_121: - x120 - x121 >= -1
 c242_neq121_122: x121 + x122 >= 1
 c243_neq121_122: - x121 - x122 >= -1
 c244_neq122_123: x122 + x123 >= 1
 c245_neq122_123: - x122 - x123 >= -1
 c246_neq123_124: x123 + x124 >= 1
 c247_neq123_124: - x123 - x124 >= -1
 c248_neq124_125: x124 + x125 >= 1
 c249_neq124_125: - x124 - x125 >= -1
 c250_neq125_126: x125 + x126 >= 1
 c251_neq125_126: - x125 - x126 >= -1
 c252_neq126_127: x126 + x127 >= 1
 c253_neq126_127: - x126 - x127 >= -1
 c254_neq127_128: x127 + x128 >= 1
 c255_neq127_128: - x127 - x128 >= -1
 c256_neq128_129: x128 + x129 >= 1
 c257_neq128_129: - x128 - x129 >= -1
 c258_neq129_130: x129 + x130 >= 1
 c259_neq129_130: - x129 - x130 >= -1
 c260_neq130_131: x130 + x131 >= 1
 c261_neq130_131: - x130 - x131 >= -1
 c262_neq131_132: x131 + x132 >= 1
 c263_neq131_132: - x131 - x132 >= -1
 c264_neq132_133: x132 + x133 >= 1
 c265_neq132_133: - x132 - x133 >= -1
 c266_neq133_134: x133 + x134 >= 1
 c267_neq133_134: - x133 - x134 >= -1
 c268_neq134_135: x134 + x135 >= 1
 c269_neq134_135: - x134 - x135 >= -1
 c270_neq135_136: x135 + x136 >= 1
 c271_neq135_136: - x135 - x136 >= -1
 c272_neq136_137: x136 + x137 >= 1
 c273_neq136_137: - x136 - x137 >= -1
 c274_neq137_138: x137 + x138 >= 1
 c275_neq137_138: - x137 - x138 >= -1
 c276_neq138_139: x138 + x139 >= 1
 c277_neq138_139: - x138 - x139 >= -1
 c278_neq139_140: x139 + x140 >= 1
 c279_neq139_140: - x139 - x140 >= -1
 c280_neq140_141: x140 + x141 >= 1
 c281_neq140_141: - x140 - x141 >= -1
 c282_neq141_142: x141 + x142 >= 1
 c283_neq141_142: - x141 - x142 >= -1
 c284_neq142_143: x142 + x143 >= 1
 c285_neq142_143: - x142 - x143 >= -1
 c286_neq143_144: x143 + x144 >= 1
 c287_neq143_144: - x143 - x144 >= -1
 c288_neq144_145: x144 + x145 >= 1
 c289_neq144_145: - x144 - x145 >= -1
 c290_neq145_146: x145 + x146 >= 1
 c291_neq145_146: - x145 - x146 >= -1
 c292_neq146_147: x146 + x147 >= 1
 c293_neq146_147: - x146 - x147 >= -1
 c294_neq147_148: x147 + x148 >= 1
 c295_neq147_148: - x147 - x148 >= -1
 c296_neq148_149: x148 + x149 >= 1
 c297_neq148_149: - x148 - x149 >= -1
 c298_neq149_150: x149 + x150 >= 1
 c299_neq149_150: - x149 - x150 >= -1
 c300_neq150_151: x150 + x151 >= 1
 c301_neq150_151: - x150 - x151 >= -1
 c302_neq151_152: x151 + x152 >= 1
 c303_neq151_152: - x151 - x152 >= -1
 c304_neq152_153: x152 + x153 >= 1
 c305_neq152_153: - x152 - x153 >= -1
 c306_neq153_154: x153 + x154 >= 1
 c307_neq153_154: - x153 - x154 >= -1
 c308_neq154_155: x154 + x155 >= 1
 c309_neq154_155: - x154 - x155 >= -1
 c310_neq155_156: x155 + x156 >= 1
 c311_neq155_156: - x155 - x156 >= -1
 c312_neq156_157: x156 + x157 >= 1
 c313_neq156_157: - x156 - x157 >= -1
 c314_neq157_158: x157 + x158 >= 1
 c315_neq157_158: - x157 - x158 >= -1
 c316_neq158_159: x158 + x159 >= 1
 c317_neq158_159: - x158 - x159 >= -1
 c318_neq159_160: x159 + x160 >= 1
 c319_neq159_160: - x159 - x160 >= -1
 c320_neq160_161: x160 + x161 >= 1
 c321_neq160_161: - x160 - x161 >= -1
 c322_neq161_162: x161 + x162 >= 1
 c323_neq161_162: - x161 - x162 >= -1
 c324_neq162_163: x162 + x163 >= 1
 c325_neq162_163: - x162 - x163 >= -1
 c326_neq163_164: x163 + x164 >= 1
 c327_neq163_164: - x163 - x164 >= -1
 c328_neq164_165: x164 + x165 >= 1
 c329_neq164_165: - x164 - x165 >= -1
 c330_neq165_166: x165 + x166 >= 1
 c331_neq165_166: - x165 - x166 >= -1
 c332_neq166_167: x166 + x167 >= 1
 c333_neq166_167: - x166 - x167 >= -1
 c334_neq167_168: x167 + x168 >= 1
 c335_neq167_168: - x167 - x168 >= -1
 c336_neq168_169: x168 + x169 >= 1
 c337_neq168_169: - x168 - x169 >= -1
 c338_neq169_170: x169 + x170 >= 1
 c339_neq169_170: - x169 - x170 >= -1
 c340_neq170_171: x170 + x171 >= 1
 c341_neq170_171: - x170 - x171 >= -1
 c342_neq171_172: x171 + x172 >= 1
 c343_neq171_172: - x171 - x172 >= -1
 c344_neq172_173: x172 + x173 >= 1
 c345_neq172_173: - x172 - x173 >= -1
 c346_neq173_174: x173 + x174 >= 1
 c347_neq173_174: - x173 - x174 >= -1
 c348_neq174_175: x174 + x175 >= 1
 c349_neq174_175: - x174 - x175 >= -1
 c350_neq175_176: x175 + x176 >= 1
 c351_neq175_176: - x175 - x176 >= -1
 c352_neq176_177: x176 + x177 >= 1
 c353_neq176_177: - x176 - x177 >= -1
 c354_neq177_178: x177 + x178 >= 1
 c355_neq177_178: - x177 - x178 >= -1
 c356_neq178_179: x178 + x179 >= 1
 c357_neq178_179: - x178 - x179 >= -1
 c358_neq179_180: x179 + x180 >= 1
 c359_neq179_180: - x179 - x180 >= -1
 c360_neq180_181: x180 + x181 >= 1
 c361_neq180_181: - x180 - x181 >= -1
 c362_neq181_182: x181 + x182 >= 1
 c363_neq181_182: - x181 - x182 >= -1
 c364_neq182_183: x182 + x183 >= 1
 c365_neq182_183: - x182 - x183 >= -1
 c366_neq183_184: x183 + x184 >= 1
 c367_neq183_184: - x183 - x184 >= -1
 c368_neq184_185: x184 + x185 >= 1
 c369_neq184_185: - x184 - x185 >= -1
 c370_neq185_186: x185 + x186 >= 1
 c371_neq185_186: - x185 - x186 >= -1
 c372_neq186_187: x186 + x187 >= 1
 c373_neq186_187: - x186 - x187 >= -1
 c374_neq187_188: x187 + x188 >= 1
 c375_neq187_188: - x187 - x188 >= -1
 c376_neq188_189: x188 + x189 >= 1
 c377_neq188_189: - x188 - x189 >= -1
 c378_neq189_190: x189 + x190 >= 1
 c379_neq189_190: - x189 - x190 >= -1
 c380_neq190_191: x190 + x191 >= 1
 c381_neq190_191: - x190 - x191 >= -1
 c382_neq191_192: x191 + x192 >= 1
 c383_neq191_192: - x191 - x192 >= -1
 c384_neq192_193: x192 + x193 >= 1
 c385_neq192_193: - x192 - x193 >= -1
 c386_neq193_194: x193 + x194 >= 1
 c387_neq193_194: - x193 - x194 >= -1
 c388_neq194_195: x194 + x195 >= 1
 c389_neq194_195: - x194 - x195 >= -1
 c390_neq195_196: x195 + x196 >= 1
 c391_neq195_196: - x195 - x196 >= -1
 c392_neq196_197: x196 + x197 >= 1
 c393_neq196_197: - x196 - x197 >= -1
 c394_neq197_198: x197 + x198 >= 1
 c395_neq197_198: - x197 - x198 >= -1
 c396_neq198_199: x198 + x199 >= 1
 c397_neq198_199: - x198 - x199 >= -1
 c398_neq199_200: x199 + x200 >= 1
 c399_neq199_200: - x199 - x200 >= -1
 c400_neq200_201: x200 + x201 >= 1
 c401_neq200_201: - x200 - x201 >= -1
 c402_neq201_202: x201 + x202 >= 1
 c403_neq201_202: - x201 - x202 >= -1
 c404_neq202_203: x202 + x203 >= 1
 c405_neq202_203: - x202 - x203 >= -1
 c406_neq203_204: x203 + x204 >= 1
 c407_neq203_204: - x203 - x204 >= -1
 c408_neq204_205: x204 + x205 >= 1
 c409_neq204_205: - x204 - x205 >= -1
 c410_neq205_206: x205 + x206 >= 1
 c411_neq205_206: - x205 - x206 >= -1
 c412_neq206_207: x206 + x207 >= 1
 c413_neq206_207: - x206 - x207 >= -1
 c414_neq207_208: x207 + x208 >= 1
 c415_neq207_208: - x207 - x208 >= -1
 c416_neq208_209: x208 + x209 >= 1
 c417_neq208_209: - x208 - x209 >= -1
 c418_neq209_210: x209 + x210 >= 1
 c419_neq209_210: - x209 - x210 >= -1
 c420_neq210_211: x210 + x211 >= 1
 c421_neq210_211: - x210 - x211 >= -1
 c422_neq211_212: x211 + x212 >= 1
 c423_neq211_212: - x211 - x212 >= -1
 c424_neq212_213: x212 + x213 >= 1
 c425_neq212_213: - x212 - x213 >= -1
 c426_neq213_214: x213 + x214 >= 1
 c427_neq213_214: - x213 - x214 >= -1
 c428_neq214_215: x214 + x215 >= 1
 c429_neq214_215: - x214 - x215 >= -1
 c430_neq215_216: x215 + x216 >= 1
 c431_neq215_216: - x215 - x216 >= -1
 c432_neq216_217: x216 + x217 >= 1
 c433_neq216_217: - x216 - x217 >= -1
 c434_neq217_218: x217 + x218 >= 1
 c435_neq217_218: - x217 - x218 >= -1
 c436_neq218_219: x218 + x219 >= 1
 c437_neq218_219: - x218 - x219 >= -1
 c438_neq219_220: x219 + x220 >= 1
 c439_neq219_220: - x219 - x220 >= -1
 c440_neq220_221: x220 + x221 >= 1
 c441_neq220_221: - x220 - x221 >= -1
 c442_neq221_222: x221 + x222 >= 1
 c443_neq221_222: - x221 - x222 >= -1
 c444_neq222_223: x222 + x223 >= 1
 c445_neq222_223: - x222 - x223 >= -1
 c446_neq223_224: x223 + x224 >= 1
 c447_neq223_224: - x223 - x224 >= -1
 c448_neq224_225: x224 + x225 >= 1
 c449_neq224_225: - x224 - x225 >= -1
 c450_neq225_226: x225 + x226 >= 1
 c451_neq225_226: - x225 - x226 >= -1
 c452_neq226_227: x226 + x227 >= 1
 c453_neq226_227: - x226 - x227 >= -1
 c454_neq227_228: x227 + x228 >= 1
 c455_neq227_228: - x227 - x228 >= -1
 c456_neq228_229: x228 + x229 >= 1
 c457_neq228_229: - x228 - x229 >= -1
 c458_neq229_230: x229 + x230 >= 1
 c459_neq229_230: - x229 - x230 >= -1
 c460_neq230_231: x230 + x231 >= 1
 c461_neq230_231: - x230 - x231 >= -1
 c462_neq231_232: x231 + x232 >= 1
 c463_neq231_232: - x231 - x232 >= -1
 c464_neq232_233: x232 + x233 >= 1
 c465_neq232_233: - x232 - x233 >= -1
 c466_neq233_234: x233 + x234 >= 1
 c467_neq233_234: - x233 - x234 >= -1
 c468_neq234_235: x234 + x235 >= 1
 c469_neq234_235: - x234 - x235 >= -1
 c470_neq235_236: x235 + x236 >= 1
 c471_neq235_236: - x235 - x236 >= -1
 c472_neq236_237: x236 + x237 >= 1
 c473_neq236_237: - x236 - x237 >= -1
 c474_neq237_238: x237 + x238 >= 1
 c475_neq237_238: - x237 - x238 >= -1
 c476_neq238_239: x238 + x239 >= 1
 c477_neq238_239: - x238 - x239 >= -1
 c478_neq239_240: x239 + x240 >= 1
 c479_neq239_240: - x239 - x240 >= -1
 c480_neq240_241: x240 + x241 >= 1
 c481_neq240_241: - x240 - x241 >= -1
 c482_neq241_242: x241 + x242 >= 1
 c483_neq241_242: - x241 - x242 >= -1
 c484_neq242_243: x242 + x243 >= 1
 c485_neq242_243: - x242 - x243 >= -1
 c486_neq243_244: x243 + x244 >= 1
 c487_neq243_244: - x243 - x244 >= -1
 c488_neq244_245: x244 + x245 >= 1
 c489_neq244_245: - x244 - x245 >= -1
 c490_neq245_246: x245 + x246 >= 1
 c491_neq245_246: - x245 - x246 >= -1
 c492_neq246_247: x246 + x247 >= 1
 c493_neq246_247: - x246 - x247 >= -1
 c494_neq247_248: x247 + x248 >= 1
 c495_neq247_248: - x247 - x248 >= -1
 c496_neq248_249: x248 + x249 >= 1
 c497_neq248_249: - x248 - x249 >= -1
 c498_neq249_250: x249 + x250 >= 1
 c499_neq249_250: - x249 - x250 >= -1
 c500_neq250_251: x250 + x251 >= 1
 c501_neq250_251: - x250 - x251 >= -1
 c502_neq251_252: x251 + x252 >= 1
 c503_neq251_252: - x251 - x252 >= -1
 c504_neq252_253: x252 + x253 >= 1
 c505_neq252_253: - x252 - x253 >= -1
 c506_neq253_254: x253 + x254 >= 1
 c507_neq253_254: - x253 - x254 >= -1
 c508_neq254_255: x254 + x255 >= 1
 c509_neq254_255: - x254 - x255 >= -1
 c510_neq255_256: x255 + x256 >= 1
 c511_neq255_256: - x255 - x256 >= -1
 c512_neq256_0: x256 + x0 >= 1
 c513_neq256_0: - x256 - x0 >= -1
Binary
 x0
 x1
 x2
 x3
 x4
 x5
 x6
 x7
 x8
 x9
 x10
 x11
 x12
 x13
 x14
 x15
 x16
 x17
 x18
 x19
 x20
 x21
 x22
 x23
 x24
 x25
 x26
 x27
 x28
 x29
 x30
 x31
 x32
 x33
 x34
 x35
 x36
 x37
 x38
 x39
 x40
 x41
 x42
 x43
 x44
 x45
 x46
 x47
 x48
 x49
 x50
 x51
 x52
 x53
 x54
 x55
 x56
 x57
 x58
 x59
 x60
 x61
 x62
 x63
 x64
 x65
 x66
 x67
 x68
 x69
 x70
 x71
 x72
 x73
 x74
 x75
 x76
 x77
 x78
 x79
 x80
 x81
 x82
 x83
 x84
 x85
 x86
 x87
 x88
 x89
 x90
 x91
 x92
 x93
 x94
 x95
 x96
 x97
 x98
 x99
 x100
 x101
 x102
 x103
 x104
 x105
 x106
 x107
 x108
 x109
 x110
 x111
 x112
 x113
 x114
 x115
 x116
 x117
 x118
 x119
 x120
 x121
 x122
 x123
 x124
 x125
 x126
 x127
 x128
 x129
 x130
 x131
 x132
 x133
 x134
 x135
 x136
 x137
 x138
 x139
 x140
 x141
 x142
 x143
 x144
 x145
 x146
 x147
 x148
 x149
 x150
 x151
 x152
 x153
 x154
 x155
 x156
 x157
 x158
 x159
 x160
 x161
 x162
 x163
 x164
 x165
 x166
 x167
 x168
 x169
 x170
 x171
 x172
 x173
 x174
 x175
 x176
 x177
 x178
 x179
 x180
 x181
 x182
 x183
 x184
 x185
 x186
 x187
 x188
 x189
 x190
 x191
 x192
 x193
 x194
 x195
 x196
 x197
 x198
 x199
 x200
 x201
 x202
 x203
 x204
 x205
 x206
 x207
 x208
 x209
 x210
 x211
 x212
 x213
 x214
 x215
 x216
 x217
 x218
 x219
 x220
 x221
 x222
 x223
 x224
 x225
 x226
 x227
 x228
 x229
 x230
 x231
 x232
 x233
 x234
 x235
 x236
 x237
 x238
 x239
 x240
 x241
 x242
 x243
 x244
 x245
 x246
 x247
 x248
 x249
 x250
 x251
 x252
 x253
 x254
 x255
 x256
End
