\ Boolean forbidden-tuple encoding
Minimize
 obj: 0
Subject To
 c0_neq0_1: x0 + x1 >= 1
 c1_neq0_1: - x0 - x1 >= -1
 c2_neq1_2: x1 + x2 >= 1
 c3_neq1_2: - x1 - x2 >= -1
 c4_neq2_3: x2 + x3 >= 1
 c5_neq2_3: - x2 - x3 >= -1
 c6_neq3_4: x3 + x4 >= 1
 c7_neq3_4: - x3 - x4 >= -1
 c8_neq4_5: x4 + x5 >= 1
 c9_neq4_5: - x4 - x5 >= -1
 c10_neq5_6: x5 + x6 >= 1
 c11_neq5_6: - x5 - x6 >= -1
 c12_neq6_7: x6 + x7 >= 1
 c13_neq6_7: - x6 - x7 >= -1
 c14_neq7_8: x7 + x8 >= 1
 c15_neq7_8: - x7 - x8 >= -1
 c16_neq8_9: x8 + x9 >= 1
 c17_neq8_9: - x8 - x9 >= -1
 c18_neq9_10: x9 + x10 >= 1
 c19_neq9_10: - x9 - x10 >= -1
 c20_neq10_11: x10 + x11 >= 1
 c21_neq10_11: - x10 - x11 >= -1
 c22_neq11_12: x11 + x12 >= 1
 c23_neq11_12: - x11 - x12 >= -1
 c24_neq12_13: x12 + x13 >= 1
 c25_neq12_13: - x12 - x13 >= -1
 c26_neq13_14: x13 + x14 >= 1
 c27_neq13_14: - x13 - x14 >= -1
 c28_neq14_15: x14 + x15 >= 1
 c29_neq14_15: - x14 - x15 >= -1
 c30_neq15_16: x15 + x16 >= 1
 c31_neq15_16: - x15 - x16 >= -1
 c32_neq16_0: x16 + x0 >= 1
 c33_neq16_0: - x16 - x0 >= -1
Binary
 x0
 x1
 x2
 x3
 x4
 x5
 x6
 x7
 x8
 x9
 x10
 x11
 x12
 x13
 x14
 x15
 x16
End
