c var 1 x0
c var 2 x1
c var 3 x2
c var 4 x3
c var 5 x4
c var 6 x5
c var 7 x6
c forbid neq0_1 {'x0': 0, 'x1': 0}
c forbid neq0_1 {'x0': 1, 'x1': 1}
c forbid neq0_2 {'x0': 0, 'x2': 0}
c forbid neq0_2 {'x0': 1, 'x2': 1}
c forbid neq1_3 {'x1': 0, 'x3': 0}
c forbid neq1_3 {'x1': 1, 'x3': 1}
c forbid neq1_4 {'x1': 0, 'x4': 0}
c forbid neq1_4 {'x1': 1, 'x4': 1}
c forbid neq2_5 {'x2': 0, 'x5': 0}
c forbid neq2_5 {'x2': 1, 'x5': 1}
c forbid neq2_6 {'x2': 0, 'x6': 0}
c forbid neq2_6 {'x2': 1, 'x6': 1}
p cnf 7 12
1 2 0
-1 -2 0
1 3 0
-1 -3 0
2 4 0
-2 -4 0
2 5 0
-2 -5 0
3 6 0
-3 -6 0
3 7 0
-3 -7 0
