c var 1 x0
c var 2 x1
c var 3 x2
c var 4 x3
c var 5 x4
c var 6 x5
c var 7 x6
c var 8 x7
c var 9 x8
c var 10 x9
c var 11 x10
c var 12 x11
c var 13 x12
c var 14 x13
c var 15 x14
c var 16 x15
c var 17 x16
c var 18 x17
c var 19 x18
c var 20 x19
c var 21 x20
c var 22 x21
c var 23 x22
c var 24 x23
c var 25 x24
c var 26 x25
c var 27 x26
c var 28 x27
c var 29 x28
c var 30 x29
c var 31 x30
c forbid neq0_1 {'x0': 0, 'x1': 0}
c forbid neq0_1 {'x0': 1, 'x1': 1}
c forbid neq0_2 {'x0': 0, 'x2': 0}
c forbid neq0_2 {'x0': 1, 'x2': 1}
c forbid neq1_3 {'x1': 0, 'x3': 0}
c forbid neq1_3 {'x1': 1, 'x3': 1}
c forbid neq1_4 {'x1': 0, 'x4': 0}
c forbid neq1_4 {'x1': 1, 'x4': 1}
c forbid neq2_5 {'x2': 0, 'x5': 0}
c forbid neq2_5 {'x2': 1, 'x5': 1}
c forbid neq2_6 {'x2': 0, 'x6': 0}
c forbid neq2_6 {'x2': 1, 'x6': 1}
c forbid neq3_7 {'x3': 0, 'x7': 0}
c forbid neq3_7 {'x3': 1, 'x7': 1}
c forbid neq3_8 {'x3': 0, 'x8': 0}
c forbid neq3_8 {'x3': 1, 'x8': 1}
c forbid neq4_9 {'x4': 0, 'x9': 0}
c forbid neq4_9 {'x4': 1, 'x9': 1}
c forbid neq4_10 {'x4': 0, 'x10': 0}
c forbid neq4_10 {'x4': 1, 'x10': 1}
c forbid neq5_11 {'x5': 0, 'x11': 0}
c forbid neq5_11 {'x5': 1, 'x11': 1}
c forbid neq5_12 {'x5': 0, 'x12': 0}
c forbid neq5_12 {'x5': 1, 'x12': 1}
c forbid neq6_13 {'x6': 0, 'x13': 0}
c forbid neq6_13 {'x6': 1, 'x13': 1}
c forbid neq6_14 {'x6': 0, 'x14': 0}
c forbid neq6_14 {'x6': 1, 'x14': 1}
c forbid neq7_15 {'x7': 0, 'x15': 0}
c forbid neq7_15 {'x7': 1, 'x15': 1}
c forbid neq7_16 {'x7': 0, 'x16': 0}
c forbid neq7_16 {'x7': 1, 'x16': 1}
c forbid neq8_17 {'x8': 0, 'x17': 0}
c forbid neq8_17 {'x8': 1, 'x17': 1}
c forbid neq8_18 {'x8': 0, 'x18': 0}
c forbid neq8_18 {'x8': 1, 'x18': 1}
c forbid neq9_19 {'x9': 0, 'x19': 0}
c forbid neq9_19 {'x9': 1, 'x19': 1}
c forbid neq9_20 {'x9': 0, 'x20': 0}
c forbid neq9_20 {'x9': 1, 'x20': 1}
c forbid neq10_21 {'x10': 0, 'x21': 0}
c forbid neq10_21 {'x10': 1, 'x21': 1}
c forbid neq10_22 {'x10': 0, 'x22': 0}
c forbid neq10_22 {'x10': 1, 'x22': 1}
c forbid neq11_23 {'x11': 0, 'x23': 0}
c forbid neq11_23 {'x11': 1, 'x23': 1}
c forbid neq11_24 {'x11': 0, 'x24': 0}
c forbid neq11_24 {'x11': 1, 'x24': 1}
c forbid neq12_25 {'x12': 0, 'x25': 0}
c forbid neq12_25 {'x12': 1, 'x25': 1}
c forbid neq12_26 {'x12': 0, 'x26': 0}
c forbid neq12_26 {'x12': 1, 'x26': 1}
c forbid neq13_27 {'x13': 0, 'x27': 0}
c forbid neq13_27 {'x13': 1, 'x27': 1}
c forbid neq13_28 {'x13': 0, 'x28': 0}
c forbid neq13_28 {'x13': 1, 'x28': 1}
c forbid neq14_29 {'x14': 0, 'x29': 0}
c forbid neq14_29 {'x14': 1, 'x29': 1}
c forbid neq14_30 {'x14': 0, 'x30': 0}
c forbid neq14_30 {'x14': 1, 'x30': 1}
p cnf 31 60
1 2 0
-1 -2 0
1 3 0
-1 -3 0
2 4 0
-2 -4 0
2 5 0
-2 -5 0
3 6 0
-3 -6 0
3 7 0
-3 -7 0
4 8 0
-4 -8 0
4 9 0
-4 -9 0
5 10 0
-5 -10 0
5 11 0
-5 -11 0
6 12 0
-6 -12 0
6 13 0
-6 -13 0
7 14 0
-7 -14 0
7 15 0
-7 -15 0
8 16 0
-8 -16 0
8 17 0
-8 -17 0
9 18 0
-9 -18 0
9 19 0
-9 -19 0
10 20 0
-10 -20 0
10 21 0
-10 -21 0
11 22 0
-11 -22 0
11 23 0
-11 -23 0
12 24 0
-12 -24 0
12 25 0
-12 -25 0
13 26 0
-13 -26 0
13 27 0
-13 -27 0
14 28 0
-14 -28 0
14 29 0
-14 -29 0
15 30 0
-15 -30 0
15 31 0
-15 -31 0
