\ Boolean forbidden-tuple encoding
Minimize
 obj: 0
Subject To
 c0_window0: x0 + x1 + x2 >= 1
 c1_window0: - x0 - x1 - x2 >= -2
 c2_window1: x1 + x2 + x3 >= 1
 c3_window1: - x1 - x2 - x3 >= -2
 c4_window2: x2 + x3 + x4 >= 1
 c5_window2: - x2 - x3 - x4 >= -2
 c6_window3: x3 + x4 + x5 >= 1
 c7_window3: - x3 - x4 - x5 >= -2
 c8_window4: x4 + x5 + x6 >= 1
 c9_window4: - x4 - x5 - x6 >= -2
 c10_window5: x5 + x6 + x7 >= 1
 c11_window5: - x5 - x6 - x7 >= -2
 c12_window6: x6 + x7 + x8 >= 1
 c13_window6: - x6 - x7 - x8 >= -2
 c14_window7: x7 + x8 + x9 >= 1
 c15_window7: - x7 - x8 - x9 >= -2
 c16_window8: x8 + x9 + x10 >= 1
 c17_window8: - x8 - x9 - x10 >= -2
 c18_window9: x9 + x10 + x11 >= 1
 c19_window9: - x9 - x10 - x11 >= -2
 c20_window10: x10 + x11 + x12 >= 1
 c21_window10: - x10 - x11 - x12 >= -2
 c22_window11: x11 + x12 + x13 >= 1
 c23_window11: - x11 - x12 - x13 >= -2
 c24_window12: x12 + x13 + x14 >= 1
 c25_window12: - x12 - x13 - x14 >= -2
 c26_window13: x13 + x14 + x15 >= 1
 c27_window13: - x13 - x14 - x15 >= -2
 c28_window14: x14 + x15 + x16 >= 1
 c29_window14: - x14 - x15 - x16 >= -2
 c30_window15: x15 + x16 + x17 >= 1
 c31_window15: - x15 - x16 - x17 >= -2
 c32_window16: x16 + x17 + x18 >= 1
 c33_window16: - x16 - x17 - x18 >= -2
 c34_window17: x17 + x18 + x19 >= 1
 c35_window17: - x17 - x18 - x19 >= -2
 c36_window18: x18 + x19 + x20 >= 1
 c37_window18: - x18 - x19 - x20 >= -2
 c38_window19: x19 + x20 + x21 >= 1
 c39_window19: - x19 - x20 - x21 >= -2
 c40_window20: x20 + x21 + x22 >= 1
 c41_window20: - x20 - x21 - x22 >= -2
 c42_window21: x21 + x22 + x23 >= 1
 c43_window21: - x21 - x22 - x23 >= -2
 c44_window22: x22 + x23 + x24 >= 1
 c45_window22: - x22 - x23 - x24 >= -2
 c46_window23: x23 + x24 + x25 >= 1
 c47_window23: - x23 - x24 - x25 >= -2
 c48_window24: x24 + x25 + x26 >= 1
 c49_window24: - x24 - x25 - x26 >= -2
 c50_window25: x25 + x26 + x27 >= 1
 c51_window25: - x25 - x26 - x27 >= -2
 c52_window26: x26 + x27 + x28 >= 1
 c53_window26: - x26 - x27 - x28 >= -2
 c54_window27: x27 + x28 + x29 >= 1
 c55_window27: - x27 - x28 - x29 >= -2
 c56_window28: x28 + x29 + x30 >= 1
 c57_window28: - x28 - x29 - x30 >= -2
 c58_window29: x29 + x30 + x31 >= 1
 c59_window29: - x29 - x30 - x31 >= -2
Binary
 x0
 x1
 x2
 x3
 x4
 x5
 x6
 x7
 x8
 x9
 x10
 x11
 x12
 x13
 x14
 x15
 x16
 x17
 x18
 x19
 x20
 x21
 x22
 x23
 x24
 x25
 x26
 x27
 x28
 x29
 x30
 x31
End
