\ Boolean forbidden-tuple encoding
Minimize
 obj: 0
Subject To
 c0_h0_0: x0_0 + x0_1 >= 1
 c1_h0_0: - x0_0 - x0_1 >= -1
 c2_h0_1: x0_1 + x0_2 >= 1
 c3_h0_1: - x0_1 - x0_2 >= -1
 c4_h0_2: x0_2 + x0_3 >= 1
 c5_h0_2: - x0_2 - x0_3 >= -1
 c6_h0_3: x0_3 + x0_4 >= 1
 c7_h0_3: - x0_3 - x0_4 >= -1
 c8_h0_4: x0_4 + x0_5 >= 1
 c9_h0_4: - x0_4 - x0_5 >= -1
 c10_h0_5: x0_5 + x0_6 >= 1
 c11_h0_5: - x0_5 - x0_6 >= -1
 c12_h0_6: x0_6 + x0_7 >= 1
 c13_h0_6: - x0_6 - x0_7 >= -1
 c14_h0_7: x0_7 + x0_8 >= 1
 c15_h0_7: - x0_7 - x0_8 >= -1
 c16_h0_8: x0_8 + x0_9 >= 1
 c17_h0_8: - x0_8 - x0_9 >= -1
 c18_h0_9: x0_9 + x0_10 >= 1
 c19_h0_9: - x0_9 - x0_10 >= -1
 c20_h0_10: x0_10 + x0_11 >= 1
 c21_h0_10: - x0_10 - x0_11 >= -1
 c22_h0_11: x0_11 + x0_12 >= 1
 c23_h0_11: - x0_11 - x0_12 >= -1
 c24_h0_12: x0_12 + x0_13 >= 1
 c25_h0_12: - x0_12 - x0_13 >= -1
 c26_h0_13: x0_13 + x0_14 >= 1
 c27_h0_13: - x0_13 - x0_14 >= -1
 c28_h0_14: x0_14 + x0_15 >= 1
 c29_h0_14: - x0_14 - x0_15 >= -1
 c30_h0_15: x0_15 + x0_16 >= 1
 c31_h0_15: - x0_15 - x0_16 >= -1
 c32_h0_16: x0_16 + x0_17 >= 1
 c33_h0_16: - x0_16 - x0_17 >= -1
 c34_h0_17: x0_17 + x0_18 >= 1
 c35_h0_17: - x0_17 - x0_18 >= -1
 c36_h0_18: x0_18 + x0_19 >= 1
 c37_h0_18: - x0_18 - x0_19 >= -1
 c38_h0_19: x0_19 + x0_20 >= 1
 c39_h0_19: - x0_19 - x0_20 >= -1
 c40_h0_20: x0_20 + x0_21 >= 1
 c41_h0_20: - x0_20 - x0_21 >= -1
 c42_h0_21: x0_21 + x0_22 >= 1
 c43_h0_21: - x0_21 - x0_22 >= -1
 c44_h0_22: x0_22 + x0_23 >= 1
 c45_h0_22: - x0_22 - x0_23 >= -1
 c46_h0_23: x0_23 + x0_24 >= 1
 c47_h0_23: - x0_23 - x0_24 >= -1
 c48_h0_24: x0_24 + x0_25 >= 1
 c49_h0_24: - x0_24 - x0_25 >= -1
 c50_h0_25: x0_25 + x0_26 >= 1
 c51_h0_25: - x0_25 - x0_26 >= -1
 c52_h0_26: x0_26 + x0_27 >= 1
 c53_h0_26: - x0_26 - x0_27 >= -1
 c54_h0_27: x0_27 + x0_28 >= 1
 c55_h0_27: - x0_27 - x0_28 >= -1
 c56_h0_28: x0_28 + x0_29 >= 1
 c57_h0_28: - x0_28 - x0_29 >= -1
 c58_h0_29: x0_29 + x0_30 >= 1
 c59_h0_29: - x0_29 - x0_30 >= -1
 c60_h0_30: x0_30 + x0_31 >= 1
 c61_h0_30: - x0_30 - x0_31 >= -1
 c62_h0_31: x0_31 + x0_32 >= 1
 c63_h0_31: - x0_31 - x0_32 >= -1
 c64_h0_32: x0_32 + x0_33 >= 1
 c65_h0_32: - x0_32 - x0_33 >= -1
 c66_h0_33: x0_33 + x0_34 >= 1
 c67_h0_33: - x0_33 - x0_34 >= -1
 c68_h0_34: x0_34 + x0_35 >= 1
 c69_h0_34: - x0_34 - x0_35 >= -1
 c70_h0_35: x0_35 + x0_36 >= 1
 c71_h0_35: - x0_35 - x0_36 >= -1
 c72_h0_36: x0_36 + x0_37 >= 1
 c73_h0_36: - x0_36 - x0_37 >= -1
 c74_h0_37: x0_37 + x0_38 >= 1
 c75_h0_37: - x0_37 - x0_38 >= -1
 c76_h0_38: x0_38 + x0_39 >= 1
 c77_h0_38: - x0_38 - x0_39 >= -1
 c78_h0_39: x0_39 + x0_40 >= 1
 c79_h0_39: - x0_39 - x0_40 >= -1
 c80_h0_40: x0_40 + x0_41 >= 1
 c81_h0_40: - x0_40 - x0_41 >= -1
 c82_h0_41: x0_41 + x0_42 >= 1
 c83_h0_41: - x0_41 - x0_42 >= -1
 c84_h0_42: x0_42 + x0_43 >= 1
 c85_h0_42: - x0_42 - x0_43 >= -1
 c86_h0_43: x0_43 + x0_44 >= 1
 c87_h0_43: - x0_43 - x0_44 >= -1
 c88_h0_44: x0_44 + x0_45 >= 1
 c89_h0_44: - x0_44 - x0_45 >= -1
 c90_h0_45: x0_45 + x0_46 >= 1
 c91_h0_45: - x0_45 - x0_46 >= -1
 c92_h0_46: x0_46 + x0_47 >= 1
 c93_h0_46: - x0_46 - x0_47 >= -1
 c94_h0_47: x0_47 + x0_48 >= 1
 c95_h0_47: - x0_47 - x0_48 >= -1
 c96_h0_48: x0_48 + x0_49 >= 1
 c97_h0_48: - x0_48 - x0_49 >= -1
 c98_h0_49: x0_49 + x0_50 >= 1
 c99_h0_49: - x0_49 - x0_50 >= -1
 c100_h0_50: x0_50 + x0_51 >= 1
 c101_h0_50: - x0_50 - x0_51 >= -1
 c102_h0_51: x0_51 + x0_52 >= 1
 c103_h0_51: - x0_51 - x0_52 >= -1
 c104_h0_52: x0_52 + x0_53 >= 1
 c105_h0_52: - x0_52 - x0_53 >= -1
 c106_h0_53: x0_53 + x0_54 >= 1
 c107_h0_53: - x0_53 - x0_54 >= -1
 c108_h0_54: x0_54 + x0_55 >= 1
 c109_h0_54: - x0_54 - x0_55 >= -1
 c110_h0_55: x0_55 + x0_56 >= 1
 c111_h0_55: - x0_55 - x0_56 >= -1
 c112_h0_56: x0_56 + x0_57 >= 1
 c113_h0_56: - x0_56 - x0_57 >= -1
 c114_h0_57: x0_57 + x0_58 >= 1
 c115_h0_57: - x0_57 - x0_58 >= -1
 c116_h0_58: x0_58 + x0_59 >= 1
 c117_h0_58: - x0_58 - x0_59 >= -1
 c118_h0_59: x0_59 + x0_60 >= 1
 c119_h0_59: - x0_59 - x0_60 >= -1
 c120_h0_60: x0_60 + x0_61 >= 1
 c121_h0_60: - x0_60 - x0_61 >= -1
 c122_h0_61: x0_61 + x0_62 >= 1
 c123_h0_61: - x0_61 - x0_62 >= -1
 c124_h0_62: x0_62 + x0_63 >= 1
 c125_h0_62: - x0_62 - x0_63 >= -1
 c126_h1_0: x1_0 + x1_1 >= 1
 c127_h1_0: - x1_0 - x1_1 >= -1
 c128_h1_1: x1_1 + x1_2 >= 1
 c129_h1_1: - x1_1 - x1_2 >= -1
 c130_h1_2: x1_2 + x1_3 >= 1
 c131_h1_2: - x1_2 - x1_3 >= -1
 c132_h1_3: x1_3 + x1_4 >= 1
 c133_h1_3: - x1_3 - x1_4 >= -1
 c134_h1_4: x1_4 + x1_5 >= 1
 c135_h1_4: - x1_4 - x1_5 >= -1
 c136_h1_5: x1_5 + x1_6 >= 1
 c137_h1_5: - x1_5 - x1_6 >= -1
 c138_h1_6: x1_6 + x1_7 >= 1
 c139_h1_6: - x1_6 - x1_7 >= -1
 c140_h1_7: x1_7 + x1_8 >= 1
 c141_h1_7: - x1_7 - x1_8 >= -1
 c142_h1_8: x1_8 + x1_9 >= 1
 c143_h1_8: - x1_8 - x1_9 >= -1
 c144_h1_9: x1_9 + x1_10 >= 1
 c145_h1_9: - x1_9 - x1_10 >= -1
 c146_h1_10: x1_10 + x1_11 >= 1
 c147_h1_10: - x1_10 - x1_11 >= -1
 c148_h1_11: x1_11 + x1_12 >= 1
 c149_h1_11: - x1_11 - x1_12 >= -1
 c150_h1_12: x1_12 + x1_13 >= 1
 c151_h1_12: - x1_12 - x1_13 >= -1
 c152_h1_13: x1_13 + x1_14 >= 1
 c153_h1_13: - x1_13 - x1_14 >= -1
 c154_h1_14: x1_14 + x1_15 >= 1
 c155_h1_14: - x1_14 - x1_15 >= -1
 c156_h1_15: x1_15 + x1_16 >= 1
 c157_h1_15: - x1_15 - x1_16 >= -1
 c158_h1_16: x1_16 + x1_17 >= 1
 c159_h1_16: - x1_16 - x1_17 >= -1
 c160_h1_17: x1_17 + x1_18 >= 1
 c161_h1_17: - x1_17 - x1_18 >= -1
 c162_h1_18: x1_18 + x1_19 >= 1
 c163_h1_18: - x1_18 - x1_19 >= -1
 c164_h1_19: x1_19 + x1_20 >= 1
 c165_h1_19: - x1_19 - x1_20 >= -1
 c166_h1_20: x1_20 + x1_21 >= 1
 c167_h1_20: - x1_20 - x1_21 >= -1
 c168_h1_21: x1_21 + x1_22 >= 1
 c169_h1_21: - x1_21 - x1_22 >= -1
 c170_h1_22: x1_22 + x1_23 >= 1
 c171_h1_22: - x1_22 - x1_23 >= -1
 c172_h1_23: x1_23 + x1_24 >= 1
 c173_h1_23: - x1_23 - x1_24 >= -1
 c174_h1_24: x1_24 + x1_25 >= 1
 c175_h1_24: - x1_24 - x1_25 >= -1
 c176_h1_25: x1_25 + x1_26 >= 1
 c177_h1_25: - x1_25 - x1_26 >= -1
 c178_h1_26: x1_26 + x1_27 >= 1
 c179_h1_26: - x1_26 - x1_27 >= -1
 c180_h1_27: x1_27 + x1_28 >= 1
 c181_h1_27: - x1_27 - x1_28 >= -1
 c182_h1_28: x1_28 + x1_29 >= 1
 c183_h1_28: - x1_28 - x1_29 >= -1
 c184_h1_29: x1_29 + x1_30 >= 1
 c185_h1_29: - x1_29 - x1_30 >= -1
 c186_h1_30: x1_30 + x1_31 >= 1
 c187_h1_30: - x1_30 - x1_31 >= -1
 c188_h1_31: x1_31 + x1_32 >= 1
 c189_h1_31: - x1_31 - x1_32 >= -1
 c190_h1_32: x1_32 + x1_33 >= 1
 c191_h1_32: - x1_32 - x1_33 >= -1
 c192_h1_33: x1_33 + x1_34 >= 1
 c193_h1_33: - x1_33 - x1_34 >= -1
 c194_h1_34: x1_34 + x1_35 >= 1
 c195_h1_34: - x1_34 - x1_35 >= -1
 c196_h1_35: x1_35 + x1_36 >= 1
 c197_h1_35: - x1_35 - x1_36 >= -1
 c198_h1_36: x1_36 + x1_37 >= 1
 c199_h1_36: - x1_36 - x1_37 >= -1
 c200_h1_37: x1_37 + x1_38 >= 1
 c201_h1_37: - x1_37 - x1_38 >= -1
 c202_h1_38: x1_38 + x1_39 >= 1
 c203_h1_38: - x1_38 - x1_39 >= -1
 c204_h1_39: x1_39 + x1_40 >= 1
 c205_h1_39: - x1_39 - x1_40 >= -1
 c206_h1_40: x1_40 + x1_41 >= 1
 c207_h1_40: - x1_40 - x1_41 >= -1
 c208_h1_41: x1_41 + x1_42 >= 1
 c209_h1_41: - x1_41 - x1_42 >= -1
 c210_h1_42: x1_42 + x1_43 >= 1
 c211_h1_42: - x1_42 - x1_43 >= -1
 c212_h1_43: x1_43 + x1_44 >= 1
 c213_h1_43: - x1_43 - x1_44 >= -1
 c214_h1_44: x1_44 + x1_45 >= 1
 c215_h1_44: - x1_44 - x1_45 >= -1
 c216_h1_45: x1_45 + x1_46 >= 1
 c217_h1_45: - x1_45 - x1_46 >= -1
 c218_h1_46: x1_46 + x1_47 >= 1
 c219_h1_46: - x1_46 - x1_47 >= -1
 c220_h1_47: x1_47 + x1_48 >= 1
 c221_h1_47: - x1_47 - x1_48 >= -1
 c222_h1_48: x1_48 + x1_49 >= 1
 c223_h1_48: - x1_48 - x1_49 >= -1
 c224_h1_49: x1_49 + x1_50 >= 1
 c225_h1_49: - x1_49 - x1_50 >= -1
 c226_h1_50: x1_50 + x1_51 >= 1
 c227_h1_50: - x1_50 - x1_51 >= -1
 c228_h1_51: x1_51 + x1_52 >= 1
 c229_h1_51: - x1_51 - x1_52 >= -1
 c230_h1_52: x1_52 + x1_53 >= 1
 c231_h1_52: - x1_52 - x1_53 >= -1
 c232_h1_53: x1_53 + x1_54 >= 1
 c233_h1_53: - x1_53 - x1_54 >= -1
 c234_h1_54: x1_54 + x1_55 >= 1
 c235_h1_54: - x1_54 - x1_55 >= -1
 c236_h1_55: x1_55 + x1_56 >= 1
 c237_h1_55: - x1_55 - x1_56 >= -1
 c238_h1_56: x1_56 + x1_57 >= 1
 c239_h1_56: - x1_56 - x1_57 >= -1
 c240_h1_57: x1_57 + x1_58 >= 1
 c241_h1_57: - x1_57 - x1_58 >= -1
 c242_h1_58: x1_58 + x1_59 >= 1
 c243_h1_58: - x1_58 - x1_59 >= -1
 c244_h1_59: x1_59 + x1_60 >= 1
 c245_h1_59: - x1_59 - x1_60 >= -1
 c246_h1_60: x1_60 + x1_61 >= 1
 c247_h1_60: - x1_60 - x1_61 >= -1
 c248_h1_61: x1_61 + x1_62 >= 1
 c249_h1_61: - x1_61 - x1_62 >= -1
 c250_h1_62: x1_62 + x1_63 >= 1
 c251_h1_62: - x1_62 - x1_63 >= -1
 c252_v0_0: x0_0 + x1_0 >= 1
 c253_v0_0: - x0_0 - x1_0 >= -1
 c254_v0_1: x0_1 + x1_1 >= 1
 c255_v0_1: - x0_1 - x1_1 >= -1
 c256_v0_2: x0_2 + x1_2 >= 1
 c257_v0_2: - x0_2 - x1_2 >= -1
 c258_v0_3: x0_3 + x1_3 >= 1
 c259_v0_3: - x0_3 - x1_3 >= -1
 c260_v0_4: x0_4 + x1_4 >= 1
 c261_v0_4: - x0_4 - x1_4 >= -1
 c262_v0_5: x0_5 + x1_5 >= 1
 c263_v0_5: - x0_5 - x1_5 >= -1
 c264_v0_6: x0_6 + x1_6 >= 1
 c265_v0_6: - x0_6 - x1_6 >= -1
 c266_v0_7: x0_7 + x1_7 >= 1
 c267_v0_7: - x0_7 - x1_7 >= -1
 c268_v0_8: x0_8 + x1_8 >= 1
 c269_v0_8: - x0_8 - x1_8 >= -1
 c270_v0_9: x0_9 + x1_9 >= 1
 c271_v0_9: - x0_9 - x1_9 >= -1
 c272_v0_10: x0_10 + x1_10 >= 1
 c273_v0_10: - x0_10 - x1_10 >= -1
 c274_v0_11: x0_11 + x1_11 >= 1
 c275_v0_11: - x0_11 - x1_11 >= -1
 c276_v0_12: x0_12 + x1_12 >= 1
 c277_v0_12: - x0_12 - x1_12 >= -1
 c278_v0_13: x0_13 + x1_13 >= 1
 c279_v0_13: - x0_13 - x1_13 >= -1
 c280_v0_14: x0_14 + x1_14 >= 1
 c281_v0_14: - x0_14 - x1_14 >= -1
 c282_v0_15: x0_15 + x1_15 >= 1
 c283_v0_15: - x0_15 - x1_15 >= -1
 c284_v0_16: x0_16 + x1_16 >= 1
 c285_v0_16: - x0_16 - x1_16 >= -1
 c286_v0_17: x0_17 + x1_17 >= 1
 c287_v0_17: - x0_17 - x1_17 >= -1
 c288_v0_18: x0_18 + x1_18 >= 1
 c289_v0_18: - x0_18 - x1_18 >= -1
 c290_v0_19: x0_19 + x1_19 >= 1
 c291_v0_19: - x0_19 - x1_19 >= -1
 c292_v0_20: x0_20 + x1_20 >= 1
 c293_v0_20: - x0_20 - x1_20 >= -1
 c294_v0_21: x0_21 + x1_21 >= 1
 c295_v0_21: - x0_21 - x1_21 >= -1
 c296_v0_22: x0_22 + x1_22 >= 1
 c297_v0_22: - x0_22 - x1_22 >= -1
 c298_v0_23: x0_23 + x1_23 >= 1
 c299_v0_23: - x0_23 - x1_23 >= -1
 c300_v0_24: x0_24 + x1_24 >= 1
 c301_v0_24: - x0_24 - x1_24 >= -1
 c302_v0_25: x0_25 + x1_25 >= 1
 c303_v0_25: - x0_25 - x1_25 >= -1
 c304_v0_26: x0_26 + x1_26 >= 1
 c305_v0_26: - x0_26 - x1_26 >= -1
 c306_v0_27: x0_27 + x1_27 >= 1
 c307_v0_27: - x0_27 - x1_27 >= -1
 c308_v0_28: x0_28 + x1_28 >= 1
 c309_v0_28: - x0_28 - x1_28 >= -1
 c310_v0_29: x0_29 + x1_29 >= 1
 c311_v0_29: - x0_29 - x1_29 >= -1
 c312_v0_30: x0_30 + x1_30 >= 1
 c313_v0_30: - x0_30 - x1_30 >= -1
 c314_v0_31: x0_31 + x1_31 >= 1
 c315_v0_31: - x0_31 - x1_31 >= -1
 c316_v0_32: x0_32 + x1_32 >= 1
 c317_v0_32: - x0_32 - x1_32 >= -1
 c318_v0_33: x0_33 + x1_33 >= 1
 c319_v0_33: - x0_33 - x1_33 >= -1
 c320_v0_34: x0_34 + x1_34 >= 1
 c321_v0_34: - x0_34 - x1_34 >= -1
 c322_v0_35: x0_35 + x1_35 >= 1
 c323_v0_35: - x0_35 - x1_35 >= -1
 c324_v0_36: x0_36 + x1_36 >= 1
 c325_v0_36: - x0_36 - x1_36 >= -1
 c326_v0_37: x0_37 + x1_37 >= 1
 c327_v0_37: - x0_37 - x1_37 >= -1
 c328_v0_38: x0_38 + x1_38 >= 1
 c329_v0_38: - x0_38 - x1_38 >= -1
 c330_v0_39: x0_39 + x1_39 >= 1
 c331_v0_39: - x0_39 - x1_39 >= -1
 c332_v0_40: x0_40 + x1_40 >= 1
 c333_v0_40: - x0_40 - x1_40 >= -1
 c334_v0_41: x0_41 + x1_41 >= 1
 c335_v0_41: - x0_41 - x1_41 >= -1
 c336_v0_42: x0_42 + x1_42 >= 1
 c337_v0_42: - x0_42 - x1_42 >= -1
 c338_v0_43: x0_43 + x1_43 >= 1
 c339_v0_43: - x0_43 - x1_43 >= -1
 c340_v0_44: x0_44 + x1_44 >= 1
 c341_v0_44: - x0_44 - x1_44 >= -1
 c342_v0_45: x0_45 + x1_45 >= 1
 c343_v0_45: - x0_45 - x1_45 >= -1
 c344_v0_46: x0_46 + x1_46 >= 1
 c345_v0_46: - x0_46 - x1_46 >= -1
 c346_v0_47: x0_47 + x1_47 >= 1
 c347_v0_47: - x0_47 - x1_47 >= -1
 c348_v0_48: x0_48 + x1_48 >= 1
 c349_v0_48: - x0_48 - x1_48 >= -1
 c350_v0_49: x0_49 + x1_49 >= 1
 c351_v0_49: - x0_49 - x1_49 >= -1
 c352_v0_50: x0_50 + x1_50 >= 1
 c353_v0_50: - x0_50 - x1_50 >= -1
 c354_v0_51: x0_51 + x1_51 >= 1
 c355_v0_51: - x0_51 - x1_51 >= -1
 c356_v0_52: x0_52 + x1_52 >= 1
 c357_v0_52: - x0_52 - x1_52 >= -1
 c358_v0_53: x0_53 + x1_53 >= 1
 c359_v0_53: - x0_53 - x1_53 >= -1
 c360_v0_54: x0_54 + x1_54 >= 1
 c361_v0_54: - x0_54 - x1_54 >= -1
 c362_v0_55: x0_55 + x1_55 >= 1
 c363_v0_55: - x0_55 - x1_55 >= -1
 c364_v0_56: x0_56 + x1_56 >= 1
 c365_v0_56: - x0_56 - x1_56 >= -1
 c366_v0_57: x0_57 + x1_57 >= 1
 c367_v0_57: - x0_57 - x1_57 >= -1
 c368_v0_58: x0_58 + x1_58 >= 1
 c369_v0_58: - x0_58 - x1_58 >= -1
 c370_v0_59: x0_59 + x1_59 >= 1
 c371_v0_59: - x0_59 - x1_59 >= -1
 c372_v0_60: x0_60 + x1_60 >= 1
 c373_v0_60: - x0_60 - x1_60 >= -1
 c374_v0_61: x0_61 + x1_61 >= 1
 c375_v0_61: - x0_61 - x1_61 >= -1
 c376_v0_62: x0_62 + x1_62 >= 1
 c377_v0_62: - x0_62 - x1_62 >= -1
 c378_v0_63: x0_63 + x1_63 >= 1
 c379_v0_63: - x0_63 - x1_63 >= -1
Binary
 x0_0
 x0_1
 x0_2
 x0_3
 x0_4
 x0_5
 x0_6
 x0_7
 x0_8
 x0_9
 x0_10
 x0_11
 x0_12
 x0_13
 x0_14
 x0_15
 x0_16
 x0_17
 x0_18
 x0_19
 x0_20
 x0_21
 x0_22
 x0_23
 x0_24
 x0_25
 x0_26
 x0_27
 x0_28
 x0_29
 x0_30
 x0_31
 x0_32
 x0_33
 x0_34
 x0_35
 x0_36
 x0_37
 x0_38
 x0_39
 x0_40
 x0_41
 x0_42
 x0_43
 x0_44
 x0_45
 x0_46
 x0_47
 x0_48
 x0_49
 x0_50
 x0_51
 x0_52
 x0_53
 x0_54
 x0_55
 x0_56
 x0_57
 x0_58
 x0_59
 x0_60
 x0_61
 x0_62
 x0_63
 x1_0
 x1_1
 x1_2
 x1_3
 x1_4
 x1_5
 x1_6
 x1_7
 x1_8
 x1_9
 x1_10
 x1_11
 x1_12
 x1_13
 x1_14
 x1_15
 x1_16
 x1_17
 x1_18
 x1_19
 x1_20
 x1_21
 x1_22
 x1_23
 x1_24
 x1_25
 x1_26
 x1_27
 x1_28
 x1_29
 x1_30
 x1_31
 x1_32
 x1_33
 x1_34
 x1_35
 x1_36
 x1_37
 x1_38
 x1_39
 x1_40
 x1_41
 x1_42
 x1_43
 x1_44
 x1_45
 x1_46
 x1_47
 x1_48
 x1_49
 x1_50
 x1_51
 x1_52
 x1_53
 x1_54
 x1_55
 x1_56
 x1_57
 x1_58
 x1_59
 x1_60
 x1_61
 x1_62
 x1_63
End
