\ Boolean forbidden-tuple encoding
Minimize
 obj: 0
Subject To
 c0_h0_0: x0_0 + x0_1 >= 1
 c1_h0_0: - x0_0 - x0_1 >= -1
 c2_h0_1: x0_1 + x0_2 >= 1
 c3_h0_1: - x0_1 - x0_2 >= -1
 c4_h0_2: x0_2 + x0_3 >= 1
 c5_h0_2: - x0_2 - x0_3 >= -1
 c6_h1_0: x1_0 + x1_1 >= 1
 c7_h1_0: - x1_0 - x1_1 >= -1
 c8_h1_1: x1_1 + x1_2 >= 1
 c9_h1_1: - x1_1 - x1_2 >= -1
 c10_h1_2: x1_2 + x1_3 >= 1
 c11_h1_2: - x1_2 - x1_3 >= -1
 c12_v0_0: x0_0 + x1_0 >= 1
 c13_v0_0: - x0_0 - x1_0 >= -1
 c14_v0_1: x0_1 + x1_1 >= 1
 c15_v0_1: - x0_1 - x1_1 >= -1
 c16_v0_2: x0_2 + x1_2 >= 1
 c17_v0_2: - x0_2 - x1_2 >= -1
 c18_v0_3: x0_3 + x1_3 >= 1
 c19_v0_3: - x0_3 - x1_3 >= -1
Binary
 x0_0
 x0_1
 x0_2
 x0_3
 x1_0
 x1_1
 x1_2
 x1_3
End
