\ Boolean forbidden-tuple encoding
Minimize
 obj: 0
Subject To
 c0_neq0_1: x0 + x1 >= 1
 c1_neq0_1: - x0 - x1 >= -1
 c2_neq0_2: x0 + x2 >= 1
 c3_neq0_2: - x0 - x2 >= -1
 c4_neq1_3: x1 + x3 >= 1
 c5_neq1_3: - x1 - x3 >= -1
 c6_neq1_4: x1 + x4 >= 1
 c7_neq1_4: - x1 - x4 >= -1
 c8_neq2_5: x2 + x5 >= 1
 c9_neq2_5: - x2 - x5 >= -1
 c10_neq2_6: x2 + x6 >= 1
 c11_neq2_6: - x2 - x6 >= -1
 c12_neq3_7: x3 + x7 >= 1
 c13_neq3_7: - x3 - x7 >= -1
 c14_neq3_8: x3 + x8 >= 1
 c15_neq3_8: - x3 - x8 >= -1
 c16_neq4_9: x4 + x9 >= 1
 c17_neq4_9: - x4 - x9 >= -1
 c18_neq4_10: x4 + x10 >= 1
 c19_neq4_10: - x4 - x10 >= -1
 c20_neq5_11: x5 + x11 >= 1
 c21_neq5_11: - x5 - x11 >= -1
 c22_neq5_12: x5 + x12 >= 1
 c23_neq5_12: - x5 - x12 >= -1
 c24_neq6_13: x6 + x13 >= 1
 c25_neq6_13: - x6 - x13 >= -1
 c26_neq6_14: x6 + x14 >= 1
 c27_neq6_14: - x6 - x14 >= -1
 c28_neq7_15: x7 + x15 >= 1
 c29_neq7_15: - x7 - x15 >= -1
 c30_neq7_16: x7 + x16 >= 1
 c31_neq7_16: - x7 - x16 >= -1
 c32_neq8_17: x8 + x17 >= 1
 c33_neq8_17: - x8 - x17 >= -1
 c34_neq8_18: x8 + x18 >= 1
 c35_neq8_18: - x8 - x18 >= -1
 c36_neq9_19: x9 + x19 >= 1
 c37_neq9_19: - x9 - x19 >= -1
 c38_neq9_20: x9 + x20 >= 1
 c39_neq9_20: - x9 - x20 >= -1
 c40_neq10_21: x10 + x21 >= 1
 c41_neq10_21: - x10 - x21 >= -1
 c42_neq10_22: x10 + x22 >= 1
 c43_neq10_22: - x10 - x22 >= -1
 c44_neq11_23: x11 + x23 >= 1
 c45_neq11_23: - x11 - x23 >= -1
 c46_neq11_24: x11 + x24 >= 1
 c47_neq11_24: - x11 - x24 >= -1
 c48_neq12_25: x12 + x25 >= 1
 c49_neq12_25: - x12 - x25 >= -1
 c50_neq12_26: x12 + x26 >= 1
 c51_neq12_26: - x12 - x26 >= -1
 c52_neq13_27: x13 + x27 >= 1
 c53_neq13_27: - x13 - x27 >= -1
 c54_neq13_28: x13 + x28 >= 1
 c55_neq13_28: - x13 - x28 >= -1
 c56_neq14_29: x14 + x29 >= 1
 c57_neq14_29: - x14 - x29 >= -1
 c58_neq14_30: x14 + x30 >= 1
 c59_neq14_30: - x14 - x30 >= -1
 c60_neq15_31: x15 + x31 >= 1
 c61_neq15_31: - x15 - x31 >= -1
 c62_neq15_32: x15 + x32 >= 1
 c63_neq15_32: - x15 - x32 >= -1
 c64_neq16_33: x16 + x33 >= 1
 c65_neq16_33: - x16 - x33 >= -1
 c66_neq16_34: x16 + x34 >= 1
 c67_neq16_34: - x16 - x34 >= -1
 c68_neq17_35: x17 + x35 >= 1
 c69_neq17_35: - x17 - x35 >= -1
 c70_neq17_36: x17 + x36 >= 1
 c71_neq17_36: - x17 - x36 >= -1
 c72_neq18_37: x18 + x37 >= 1
 c73_neq18_37: - x18 - x37 >= -1
 c74_neq18_38: x18 + x38 >= 1
 c75_neq18_38: - x18 - x38 >= -1
 c76_neq19_39: x19 + x39 >= 1
 c77_neq19_39: - x19 - x39 >= -1
 c78_neq19_40: x19 + x40 >= 1
 c79_neq19_40: - x19 - x40 >= -1
 c80_neq20_41: x20 + x41 >= 1
 c81_neq20_41: - x20 - x41 >= -1
 c82_neq20_42: x20 + x42 >= 1
 c83_neq20_42: - x20 - x42 >= -1
 c84_neq21_43: x21 + x43 >= 1
 c85_neq21_43: - x21 - x43 >= -1
 c86_neq21_44: x21 + x44 >= 1
 c87_neq21_44: - x21 - x44 >= -1
 c88_neq22_45: x22 + x45 >= 1
 c89_neq22_45: - x22 - x45 >= -1
 c90_neq22_46: x22 + x46 >= 1
 c91_neq22_46: - x22 - x46 >= -1
 c92_neq23_47: x23 + x47 >= 1
 c93_neq23_47: - x23 - x47 >= -1
 c94_neq23_48: x23 + x48 >= 1
 c95_neq23_48: - x23 - x48 >= -1
 c96_neq24_49: x24 + x49 >= 1
 c97_neq24_49: - x24 - x49 >= -1
 c98_neq24_50: x24 + x50 >= 1
 c99_neq24_50: - x24 - x50 >= -1
 c100_neq25_51: x25 + x51 >= 1
 c101_neq25_51: - x25 - x51 >= -1
 c102_neq25_52: x25 + x52 >= 1
 c103_neq25_52: - x25 - x52 >= -1
 c104_neq26_53: x26 + x53 >= 1
 c105_neq26_53: - x26 - x53 >= -1
 c106_neq26_54: x26 + x54 >= 1
 c107_neq26_54: - x26 - x54 >= -1
 c108_neq27_55: x27 + x55 >= 1
 c109_neq27_55: - x27 - x55 >= -1
 c110_neq27_56: x27 + x56 >= 1
 c111_neq27_56: - x27 - x56 >= -1
 c112_neq28_57: x28 + x57 >= 1
 c113_neq28_57: - x28 - x57 >= -1
 c114_neq28_58: x28 + x58 >= 1
 c115_neq28_58: - x28 - x58 >= -1
 c116_neq29_59: x29 + x59 >= 1
 c117_neq29_59: - x29 - x59 >= -1
 c118_neq29_60: x29 + x60 >= 1
 c119_neq29_60: - x29 - x60 >= -1
 c120_neq30_61: x30 + x61 >= 1
 c121_neq30_61: - x30 - x61 >= -1
 c122_neq30_62: x30 + x62 >= 1
 c123_neq30_62: - x30 - x62 >= -1
 c124_neq31_63: x31 + x63 >= 1
 c125_neq31_63: - x31 - x63 >= -1
 c126_neq31_64: x31 + x64 >= 1
 c127_neq31_64: - x31 - x64 >= -1
 c128_neq32_65: x32 + x65 >= 1
 c129_neq32_65: - x32 - x65 >= -1
 c130_neq32_66: x32 + x66 >= 1
 c131_neq32_66: - x32 - x66 >= -1
 c132_neq33_67: x33 + x67 >= 1
 c133_neq33_67: - x33 - x67 >= -1
 c134_neq33_68: x33 + x68 >= 1
 c135_neq33_68: - x33 - x68 >= -1
 c136_neq34_69: x34 + x69 >= 1
 c137_neq34_69: - x34 - x69 >= -1
 c138_neq34_70: x34 + x70 >= 1
 c139_neq34_70: - x34 - x70 >= -1
 c140_neq35_71: x35 + x71 >= 1
 c141_neq35_71: - x35 - x71 >= -1
 c142_neq35_72: x35 + x72 >= 1
 c143_neq35_72: - x35 - x72 >= -1
 c144_neq36_73: x36 + x73 >= 1
 c145_neq36_73: - x36 - x73 >= -1
 c146_neq36_74: x36 + x74 >= 1
 c147_neq36_74: - x36 - x74 >= -1
 c148_neq37_75: x37 + x75 >= 1
 c149_neq37_75: - x37 - x75 >= -1
 c150_neq37_76: x37 + x76 >= 1
 c151_neq37_76: - x37 - x76 >= -1
 c152_neq38_77: x38 + x77 >= 1
 c153_neq38_77: - x38 - x77 >= -1
 c154_neq38_78: x38 + x78 >= 1
 c155_neq38_78: - x38 - x78 >= -1
 c156_neq39_79: x39 + x79 >= 1
 c157_neq39_79: - x39 - x79 >= -1
 c158_neq39_80: x39 + x80 >= 1
 c159_neq39_80: - x39 - x80 >= -1
 c160_neq40_81: x40 + x81 >= 1
 c161_neq40_81: - x40 - x81 >= -1
 c162_neq40_82: x40 + x82 >= 1
 c163_neq40_82: - x40 - x82 >= -1
 c164_neq41_83: x41 + x83 >= 1
 c165_neq41_83: - x41 - x83 >= -1
 c166_neq41_84: x41 + x84 >= 1
 c167_neq41_84: - x41 - x84 >= -1
 c168_neq42_85: x42 + x85 >= 1
 c169_neq42_85: - x42 - x85 >= -1
 c170_neq42_86: x42 + x86 >= 1
 c171_neq42_86: - x42 - x86 >= -1
 c172_neq43_87: x43 + x87 >= 1
 c173_neq43_87: - x43 - x87 >= -1
 c174_neq43_88: x43 + x88 >= 1
 c175_neq43_88: - x43 - x88 >= -1
 c176_neq44_89: x44 + x89 >= 1
 c177_neq44_89: - x44 - x89 >= -1
 c178_neq44_90: x44 + x90 >= 1
 c179_neq44_90: - x44 - x90 >= -1
 c180_neq45_91: x45 + x91 >= 1
 c181_neq45_91: - x45 - x91 >= -1
 c182_neq45_92: x45 + x92 >= 1
 c183_neq45_92: - x45 - x92 >= -1
 c184_neq46_93: x46 + x93 >= 1
 c185_neq46_93: - x46 - x93 >= -1
 c186_neq46_94: x46 + x94 >= 1
 c187_neq46_94: - x46 - x94 >= -1
 c188_neq47_95: x47 + x95 >= 1
 c189_neq47_95: - x47 - x95 >= -1
 c190_neq47_96: x47 + x96 >= 1
 c191_neq47_96: - x47 - x96 >= -1
 c192_neq48_97: x48 + x97 >= 1
 c193_neq48_97: - x48 - x97 >= -1
 c194_neq48_98: x48 + x98 >= 1
 c195_neq48_98: - x48 - x98 >= -1
 c196_neq49_99: x49 + x99 >= 1
 c197_neq49_99: - x49 - x99 >= -1
 c198_neq49_100: x49 + x100 >= 1
 c199_neq49_100: - x49 - x100 >= -1
 c200_neq50_101: x50 + x101 >= 1
 c201_neq50_101: - x50 - x101 >= -1
 c202_neq50_102: x50 + x102 >= 1
 c203_neq50_102: - x50 - x102 >= -1
 c204_neq51_103: x51 + x103 >= 1
 c205_neq51_103: - x51 - x103 >= -1
 c206_neq51_104: x51 + x104 >= 1
 c207_neq51_104: - x51 - x104 >= -1
 c208_neq52_105: x52 + x105 >= 1
 c209_neq52_105: - x52 - x105 >= -1
 c210_neq52_106: x52 + x106 >= 1
 c211_neq52_106: - x52 - x106 >= -1
 c212_neq53_107: x53 + x107 >= 1
 c213_neq53_107: - x53 - x107 >= -1
 c214_neq53_108: x53 + x108 >= 1
 c215_neq53_108: - x53 - x108 >= -1
 c216_neq54_109: x54 + x109 >= 1
 c217_neq54_109: - x54 - x109 >= -1
 c218_neq54_110: x54 + x110 >= 1
 c219_neq54_110: - x54 - x110 >= -1
 c220_neq55_111: x55 + x111 >= 1
 c221_neq55_111: - x55 - x111 >= -1
 c222_neq55_112: x55 + x112 >= 1
 c223_neq55_112: - x55 - x112 >= -1
 c224_neq56_113: x56 + x113 >= 1
 c225_neq56_113: - x56 - x113 >= -1
 c226_neq56_114: x56 + x114 >= 1
 c227_neq56_114: - x56 - x114 >= -1
 c228_neq57_115: x57 + x115 >= 1
 c229_neq57_115: - x57 - x115 >= -1
 c230_neq57_116: x57 + x116 >= 1
 c231_neq57_116: - x57 - x116 >= -1
 c232_neq58_117: x58 + x117 >= 1
 c233_neq58_117: - x58 - x117 >= -1
 c234_neq58_118: x58 + x118 >= 1
 c235_neq58_118: - x58 - x118 >= -1
 c236_neq59_119: x59 + x119 >= 1
 c237_neq59_119: - x59 - x119 >= -1
 c238_neq59_120: x59 + x120 >= 1
 c239_neq59_120: - x59 - x120 >= -1
 c240_neq60_121: x60 + x121 >= 1
 c241_neq60_121: - x60 - x121 >= -1
 c242_neq60_122: x60 + x122 >= 1
 c243_neq60_122: - x60 - x122 >= -1
 c244_neq61_123: x61 + x123 >= 1
 c245_neq61_123: - x61 - x123 >= -1
 c246_neq61_124: x61 + x124 >= 1
 c247_neq61_124: - x61 - x124 >= -1
 c248_neq62_125: x62 + x125 >= 1
 c249_neq62_125: - x62 - x125 >= -1
 c250_neq62_126: x62 + x126 >= 1
 c251_neq62_126: - x62 - x126 >= -1
 c252_neq63_127: x63 + x127 >= 1
 c253_neq63_127: - x63 - x127 >= -1
 c254_neq63_128: x63 + x128 >= 1
 c255_neq63_128: - x63 - x128 >= -1
 c256_neq64_129: x64 + x129 >= 1
 c257_neq64_129: - x64 - x129 >= -1
 c258_neq64_130: x64 + x130 >= 1
 c259_neq64_130: - x64 - x130 >= -1
 c260_neq65_131: x65 + x131 >= 1
 c261_neq65_131: - x65 - x131 >= -1
 c262_neq65_132: x65 + x132 >= 1
 c263_neq65_132: - x65 - x132 >= -1
 c264_neq66_133: x66 + x133 >= 1
 c265_neq66_133: - x66 - x133 >= -1
 c266_neq66_134: x66 + x134 >= 1
 c267_neq66_134: - x66 - x134 >= -1
 c268_neq67_135: x67 + x135 >= 1
 c269_neq67_135: - x67 - x135 >= -1
 c270_neq67_136: x67 + x136 >= 1
 c271_neq67_136: - x67 - x136 >= -1
 c272_neq68_137: x68 + x137 >= 1
 c273_neq68_137: - x68 - x137 >= -1
 c274_neq68_138: x68 + x138 >= 1
 c275_neq68_138: - x68 - x138 >= -1
 c276_neq69_139: x69 + x139 >= 1
 c277_neq69_139: - x69 - x139 >= -1
 c278_neq69_140: x69 + x140 >= 1
 c279_neq69_140: - x69 - x140 >= -1
 c280_neq70_141: x70 + x141 >= 1
 c281_neq70_141: - x70 - x141 >= -1
 c282_neq70_142: x70 + x142 >= 1
 c283_neq70_142: - x70 - x142 >= -1
 c284_neq71_143: x71 + x143 >= 1
 c285_neq71_143: - x71 - x143 >= -1
 c286_neq71_144: x71 + x144 >= 1
 c287_neq71_144: - x71 - x144 >= -1
 c288_neq72_145: x72 + x145 >= 1
 c289_neq72_145: - x72 - x145 >= -1
 c290_neq72_146: x72 + x146 >= 1
 c291_neq72_146: - x72 - x146 >= -1
 c292_neq73_147: x73 + x147 >= 1
 c293_neq73_147: - x73 - x147 >= -1
 c294_neq73_148: x73 + x148 >= 1
 c295_neq73_148: - x73 - x148 >= -1
 c296_neq74_149: x74 + x149 >= 1
 c297_neq74_149: - x74 - x149 >= -1
 c298_neq74_150: x74 + x150 >= 1
 c299_neq74_150: - x74 - x150 >= -1
 c300_neq75_151: x75 + x151 >= 1
 c301_neq75_151: - x75 - x151 >= -1
 c302_neq75_152: x75 + x152 >= 1
 c303_neq75_152: - x75 - x152 >= -1
 c304_neq76_153: x76 + x153 >= 1
 c305_neq76_153: - x76 - x153 >= -1
 c306_neq76_154: x76 + x154 >= 1
 c307_neq76_154: - x76 - x154 >= -1
 c308_neq77_155: x77 + x155 >= 1
 c309_neq77_155: - x77 - x155 >= -1
 c310_neq77_156: x77 + x156 >= 1
 c311_neq77_156: - x77 - x156 >= -1
 c312_neq78_157: x78 + x157 >= 1
 c313_neq78_157: - x78 - x157 >= -1
 c314_neq78_158: x78 + x158 >= 1
 c315_neq78_158: - x78 - x158 >= -1
 c316_neq79_159: x79 + x159 >= 1
 c317_neq79_159: - x79 - x159 >= -1
 c318_neq79_160: x79 + x160 >= 1
 c319_neq79_160: - x79 - x160 >= -1
 c320_neq80_161: x80 + x161 >= 1
 c321_neq80_161: - x80 - x161 >= -1
 c322_neq80_162: x80 + x162 >= 1
 c323_neq80_162: - x80 - x162 >= -1
 c324_neq81_163: x81 + x163 >= 1
 c325_neq81_163: - x81 - x163 >= -1
 c326_neq81_164: x81 + x164 >= 1
 c327_neq81_164: - x81 - x164 >= -1
 c328_neq82_165: x82 + x165 >= 1
 c329_neq82_165: - x82 - x165 >= -1
 c330_neq82_166: x82 + x166 >= 1
 c331_neq82_166: - x82 - x166 >= -1
 c332_neq83_167: x83 + x167 >= 1
 c333_neq83_167: - x83 - x167 >= -1
 c334_neq83_168: x83 + x168 >= 1
 c335_neq83_168: - x83 - x168 >= -1
 c336_neq84_169: x84 + x169 >= 1
 c337_neq84_169: - x84 - x169 >= -1
 c338_neq84_170: x84 + x170 >= 1
 c339_neq84_170: - x84 - x170 >= -1
 c340_neq85_171: x85 + x171 >= 1
 c341_neq85_171: - x85 - x171 >= -1
 c342_neq85_172: x85 + x172 >= 1
 c343_neq85_172: - x85 - x172 >= -1
 c344_neq86_173: x86 + x173 >= 1
 c345_neq86_173: - x86 - x173 >= -1
 c346_neq86_174: x86 + x174 >= 1
 c347_neq86_174: - x86 - x174 >= -1
 c348_neq87_175: x87 + x175 >= 1
 c349_neq87_175: - x87 - x175 >= -1
 c350_neq87_176: x87 + x176 >= 1
 c351_neq87_176: - x87 - x176 >= -1
 c352_neq88_177: x88 + x177 >= 1
 c353_neq88_177: - x88 - x177 >= -1
 c354_neq88_178: x88 + x178 >= 1
 c355_neq88_178: - x88 - x178 >= -1
 c356_neq89_179: x89 + x179 >= 1
 c357_neq89_179: - x89 - x179 >= -1
 c358_neq89_180: x89 + x180 >= 1
 c359_neq89_180: - x89 - x180 >= -1
 c360_neq90_181: x90 + x181 >= 1
 c361_neq90_181: - x90 - x181 >= -1
 c362_neq90_182: x90 + x182 >= 1
 c363_neq90_182: - x90 - x182 >= -1
 c364_neq91_183: x91 + x183 >= 1
 c365_neq91_183: - x91 - x183 >= -1
 c366_neq91_184: x91 + x184 >= 1
 c367_neq91_184: - x91 - x184 >= -1
 c368_neq92_185: x92 + x185 >= 1
 c369_neq92_185: - x92 - x185 >= -1
 c370_neq92_186: x92 + x186 >= 1
 c371_neq92_186: - x92 - x186 >= -1
 c372_neq93_187: x93 + x187 >= 1
 c373_neq93_187: - x93 - x187 >= -1
 c374_neq93_188: x93 + x188 >= 1
 c375_neq93_188: - x93 - x188 >= -1
 c376_neq94_189: x94 + x189 >= 1
 c377_neq94_189: - x94 - x189 >= -1
 c378_neq94_190: x94 + x190 >= 1
 c379_neq94_190: - x94 - x190 >= -1
 c380_neq95_191: x95 + x191 >= 1
 c381_neq95_191: - x95 - x191 >= -1
 c382_neq95_192: x95 + x192 >= 1
 c383_neq95_192: - x95 - x192 >= -1
 c384_neq96_193: x96 + x193 >= 1
 c385_neq96_193: - x96 - x193 >= -1
 c386_neq96_194: x96 + x194 >= 1
 c387_neq96_194: - x96 - x194 >= -1
 c388_neq97_195: x97 + x195 >= 1
 c389_neq97_195: - x97 - x195 >= -1
 c390_neq97_196: x97 + x196 >= 1
 c391_neq97_196: - x97 - x196 >= -1
 c392_neq98_197: x98 + x197 >= 1
 c393_neq98_197: - x98 - x197 >= -1
 c394_neq98_198: x98 + x198 >= 1
 c395_neq98_198: - x98 - x198 >= -1
 c396_neq99_199: x99 + x199 >= 1
 c397_neq99_199: - x99 - x199 >= -1
 c398_neq99_200: x99 + x200 >= 1
 c399_neq99_200: - x99 - x200 >= -1
 c400_neq100_201: x100 + x201 >= 1
 c401_neq100_201: - x100 - x201 >= -1
 c402_neq100_202: x100 + x202 >= 1
 c403_neq100_202: - x100 - x202 >= -1
 c404_neq101_203: x101 + x203 >= 1
 c405_neq101_203: - x101 - x203 >= -1
 c406_neq101_204: x101 + x204 >= 1
 c407_neq101_204: - x101 - x204 >= -1
 c408_neq102_205: x102 + x205 >= 1
 c409_neq102_205: - x102 - x205 >= -1
 c410_neq102_206: x102 + x206 >= 1
 c411_neq102_206: - x102 - x206 >= -1
 c412_neq103_207: x103 + x207 >= 1
 c413_neq103_207: - x103 - x207 >= -1
 c414_neq103_208: x103 + x208 >= 1
 c415_neq103_208: - x103 - x208 >= -1
 c416_neq104_209: x104 + x209 >= 1
 c417_neq104_209: - x104 - x209 >= -1
 c418_neq104_210: x104 + x210 >= 1
 c419_neq104_210: - x104 - x210 >= -1
 c420_neq105_211: x105 + x211 >= 1
 c421_neq105_211: - x105 - x211 >= -1
 c422_neq105_212: x105 + x212 >= 1
 c423_neq105_212: - x105 - x212 >= -1
 c424_neq106_213: x106 + x213 >= 1
 c425_neq106_213: - x106 - x213 >= -1
 c426_neq106_214: x106 + x214 >= 1
 c427_neq106_214: - x106 - x214 >= -1
 c428_neq107_215: x107 + x215 >= 1
 c429_neq107_215: - x107 - x215 >= -1
 c430_neq107_216: x107 + x216 >= 1
 c431_neq107_216: - x107 - x216 >= -1
 c432_neq108_217: x108 + x217 >= 1
 c433_neq108_217: - x108 - x217 >= -1
 c434_neq108_218: x108 + x218 >= 1
 c435_neq108_218: - x108 - x218 >= -1
 c436_neq109_219: x109 + x219 >= 1
 c437_neq109_219: - x109 - x219 >= -1
 c438_neq109_220: x109 + x220 >= 1
 c439_neq109_220: - x109 - x220 >= -1
 c440_neq110_221: x110 + x221 >= 1
 c441_neq110_221: - x110 - x221 >= -1
 c442_neq110_222: x110 + x222 >= 1
 c443_neq110_222: - x110 - x222 >= -1
 c444_neq111_223: x111 + x223 >= 1
 c445_neq111_223: - x111 - x223 >= -1
 c446_neq111_224: x111 + x224 >= 1
 c447_neq111_224: - x111 - x224 >= -1
 c448_neq112_225: x112 + x225 >= 1
 c449_neq112_225: - x112 - x225 >= -1
 c450_neq112_226: x112 + x226 >= 1
 c451_neq112_226: - x112 - x226 >= -1
 c452_neq113_227: x113 + x227 >= 1
 c453_neq113_227: - x113 - x227 >= -1
 c454_neq113_228: x113 + x228 >= 1
 c455_neq113_228: - x113 - x228 >= -1
 c456_neq114_229: x114 + x229 >= 1
 c457_neq114_229: - x114 - x229 >= -1
 c458_neq114_230: x114 + x230 >= 1
 c459_neq114_230: - x114 - x230 >= -1
 c460_neq115_231: x115 + x231 >= 1
 c461_neq115_231: - x115 - x231 >= -1
 c462_neq115_232: x115 + x232 >= 1
 c463_neq115_232: - x115 - x232 >= -1
 c464_neq116_233: x116 + x233 >= 1
 c465_neq116_233: - x116 - x233 >= -1
 c466_neq116_234: x116 + x234 >= 1
 c467_neq116_234: - x116 - x234 >= -1
 c468_neq117_235: x117 + x235 >= 1
 c469_neq117_235: - x117 - x235 >= -1
 c470_neq117_236: x117 + x236 >= 1
 c471_neq117_236: - x117 - x236 >= -1
 c472_neq118_237: x118 + x237 >= 1
 c473_neq118_237: - x118 - x237 >= -1
 c474_neq118_238: x118 + x238 >= 1
 c475_neq118_238: - x118 - x238 >= -1
 c476_neq119_239: x119 + x239 >= 1
 c477_neq119_239: - x119 - x239 >= -1
 c478_neq119_240: x119 + x240 >= 1
 c479_neq119_240: - x119 - x240 >= -1
 c480_neq120_241: x120 + x241 >= 1
 c481_neq120_241: - x120 - x241 >= -1
 c482_neq120_242: x120 + x242 >= 1
 c483_neq120_242: - x120 - x242 >= -1
 c484_neq121_243: x121 + x243 >= 1
 c485_neq121_243: - x121 - x243 >= -1
 c486_neq121_244: x121 + x244 >= 1
 c487_neq121_244: - x121 - x244 >= -1
 c488_neq122_245: x122 + x245 >= 1
 c489_neq122_245: - x122 - x245 >= -1
 c490_neq122_246: x122 + x246 >= 1
 c491_neq122_246: - x122 - x246 >= -1
 c492_neq123_247: x123 + x247 >= 1
 c493_neq123_247: - x123 - x247 >= -1
 c494_neq123_248: x123 + x248 >= 1
 c495_neq123_248: - x123 - x248 >= -1
 c496_neq124_249: x124 + x249 >= 1
 c497_neq124_249: - x124 - x249 >= -1
 c498_neq124_250: x124 + x250 >= 1
 c499_neq124_250: - x124 - x250 >= -1
 c500_neq125_251: x125 + x251 >= 1
 c501_neq125_251: - x125 - x251 >= -1
 c502_neq125_252: x125 + x252 >= 1
 c503_neq125_252: - x125 - x252 >= -1
 c504_neq126_253: x126 + x253 >= 1
 c505_neq126_253: - x126 - x253 >= -1
 c506_neq126_254: x126 + x254 >= 1
 c507_neq126_254: - x126 - x254 >= -1
 c508_neq127_255: x127 + x255 >= 1
 c509_neq127_255: - x127 - x255 >= -1
 c510_neq127_256: x127 + x256 >= 1
 c511_neq127_256: - x127 - x256 >= -1
 c512_neq128_257: x128 + x257 >= 1
 c513_neq128_257: - x128 - x257 >= -1
 c514_neq128_258: x128 + x258 >= 1
 c515_neq128_258: - x128 - x258 >= -1
 c516_neq129_259: x129 + x259 >= 1
 c517_neq129_259: - x129 - x259 >= -1
 c518_neq129_260: x129 + x260 >= 1
 c519_neq129_260: - x129 - x260 >= -1
 c520_neq130_261: x130 + x261 >= 1
 c521_neq130_261: - x130 - x261 >= -1
 c522_neq130_262: x130 + x262 >= 1
 c523_neq130_262: - x130 - x262 >= -1
 c524_neq131_263: x131 + x263 >= 1
 c525_neq131_263: - x131 - x263 >= -1
 c526_neq131_264: x131 + x264 >= 1
 c527_neq131_264: - x131 - x264 >= -1
 c528_neq132_265: x132 + x265 >= 1
 c529_neq132_265: - x132 - x265 >= -1
 c530_neq132_266: x132 + x266 >= 1
 c531_neq132_266: - x132 - x266 >= -1
 c532_neq133_267: x133 + x267 >= 1
 c533_neq133_267: - x133 - x267 >= -1
 c534_neq133_268: x133 + x268 >= 1
 c535_neq133_268: - x133 - x268 >= -1
 c536_neq134_269: x134 + x269 >= 1
 c537_neq134_269: - x134 - x269 >= -1
 c538_neq134_270: x134 + x270 >= 1
 c539_neq134_270: - x134 - x270 >= -1
 c540_neq135_271: x135 + x271 >= 1
 c541_neq135_271: - x135 - x271 >= -1
 c542_neq135_272: x135 + x272 >= 1
 c543_neq135_272: - x135 - x272 >= -1
 c544_neq136_273: x136 + x273 >= 1
 c545_neq136_273: - x136 - x273 >= -1
 c546_neq136_274: x136 + x274 >= 1
 c547_neq136_274: - x136 - x274 >= -1
 c548_neq137_275: x137 + x275 >= 1
 c549_neq137_275: - x137 - x275 >= -1
 c550_neq137_276: x137 + x276 >= 1
 c551_neq137_276: - x137 - x276 >= -1
 c552_neq138_277: x138 + x277 >= 1
 c553_neq138_277: - x138 - x277 >= -1
 c554_neq138_278: x138 + x278 >= 1
 c555_neq138_278: - x138 - x278 >= -1
 c556_neq139_279: x139 + x279 >= 1
 c557_neq139_279: - x139 - x279 >= -1
 c558_neq139_280: x139 + x280 >= 1
 c559_neq139_280: - x139 - x280 >= -1
 c560_neq140_281: x140 + x281 >= 1
 c561_neq140_281: - x140 - x281 >= -1
 c562_neq140_282: x140 + x282 >= 1
 c563_neq140_282: - x140 - x282 >= -1
 c564_neq141_283: x141 + x283 >= 1
 c565_neq141_283: - x141 - x283 >= -1
 c566_neq141_284: x141 + x284 >= 1
 c567_neq141_284: - x141 - x284 >= -1
 c568_neq142_285: x142 + x285 >= 1
 c569_neq142_285: - x142 - x285 >= -1
 c570_neq142_286: x142 + x286 >= 1
 c571_neq142_286: - x142 - x286 >= -1
 c572_neq143_287: x143 + x287 >= 1
 c573_neq143_287: - x143 - x287 >= -1
 c574_neq143_288: x143 + x288 >= 1
 c575_neq143_288: - x143 - x288 >= -1
 c576_neq144_289: x144 + x289 >= 1
 c577_neq144_289: - x144 - x289 >= -1
 c578_neq144_290: x144 + x290 >= 1
 c579_neq144_290: - x144 - x290 >= -1
 c580_neq145_291: x145 + x291 >= 1
 c581_neq145_291: - x145 - x291 >= -1
 c582_neq145_292: x145 + x292 >= 1
 c583_neq145_292: - x145 - x292 >= -1
 c584_neq146_293: x146 + x293 >= 1
 c585_neq146_293: - x146 - x293 >= -1
 c586_neq146_294: x146 + x294 >= 1
 c587_neq146_294: - x146 - x294 >= -1
 c588_neq147_295: x147 + x295 >= 1
 c589_neq147_295: - x147 - x295 >= -1
 c590_neq147_296: x147 + x296 >= 1
 c591_neq147_296: - x147 - x296 >= -1
 c592_neq148_297: x148 + x297 >= 1
 c593_neq148_297: - x148 - x297 >= -1
 c594_neq148_298: x148 + x298 >= 1
 c595_neq148_298: - x148 - x298 >= -1
 c596_neq149_299: x149 + x299 >= 1
 c597_neq149_299: - x149 - x299 >= -1
 c598_neq149_300: x149 + x300 >= 1
 c599_neq149_300: - x149 - x300 >= -1
 c600_neq150_301: x150 + x301 >= 1
 c601_neq150_301: - x150 - x301 >= -1
 c602_neq150_302: x150 + x302 >= 1
 c603_neq150_302: - x150 - x302 >= -1
 c604_neq151_303: x151 + x303 >= 1
 c605_neq151_303: - x151 - x303 >= -1
 c606_neq151_304: x151 + x304 >= 1
 c607_neq151_304: - x151 - x304 >= -1
 c608_neq152_305: x152 + x305 >= 1
 c609_neq152_305: - x152 - x305 >= -1
 c610_neq152_306: x152 + x306 >= 1
 c611_neq152_306: - x152 - x306 >= -1
 c612_neq153_307: x153 + x307 >= 1
 c613_neq153_307: - x153 - x307 >= -1
 c614_neq153_308: x153 + x308 >= 1
 c615_neq153_308: - x153 - x308 >= -1
 c616_neq154_309: x154 + x309 >= 1
 c617_neq154_309: - x154 - x309 >= -1
 c618_neq154_310: x154 + x310 >= 1
 c619_neq154_310: - x154 - x310 >= -1
 c620_neq155_311: x155 + x311 >= 1
 c621_neq155_311: - x155 - x311 >= -1
 c622_neq155_312: x155 + x312 >= 1
 c623_neq155_312: - x155 - x312 >= -1
 c624_neq156_313: x156 + x313 >= 1
 c625_neq156_313: - x156 - x313 >= -1
 c626_neq156_314: x156 + x314 >= 1
 c627_neq156_314: - x156 - x314 >= -1
 c628_neq157_315: x157 + x315 >= 1
 c629_neq157_315: - x157 - x315 >= -1
 c630_neq157_316: x157 + x316 >= 1
 c631_neq157_316: - x157 - x316 >= -1
 c632_neq158_317: x158 + x317 >= 1
 c633_neq158_317: - x158 - x317 >= -1
 c634_neq158_318: x158 + x318 >= 1
 c635_neq158_318: - x158 - x318 >= -1
 c636_neq159_319: x159 + x319 >= 1
 c637_neq159_319: - x159 - x319 >= -1
 c638_neq159_320: x159 + x320 >= 1
 c639_neq159_320: - x159 - x320 >= -1
 c640_neq160_321: x160 + x321 >= 1
 c641_neq160_321: - x160 - x321 >= -1
 c642_neq160_322: x160 + x322 >= 1
 c643_neq160_322: - x160 - x322 >= -1
 c644_neq161_323: x161 + x323 >= 1
 c645_neq161_323: - x161 - x323 >= -1
 c646_neq161_324: x161 + x324 >= 1
 c647_neq161_324: - x161 - x324 >= -1
 c648_neq162_325: x162 + x325 >= 1
 c649_neq162_325: - x162 - x325 >= -1
 c650_neq162_326: x162 + x326 >= 1
 c651_neq162_326: - x162 - x326 >= -1
 c652_neq163_327: x163 + x327 >= 1
 c653_neq163_327: - x163 - x327 >= -1
 c654_neq163_328: x163 + x328 >= 1
 c655_neq163_328: - x163 - x328 >= -1
 c656_neq164_329: x164 + x329 >= 1
 c657_neq164_329: - x164 - x329 >= -1
 c658_neq164_330: x164 + x330 >= 1
 c659_neq164_330: - x164 - x330 >= -1
 c660_neq165_331: x165 + x331 >= 1
 c661_neq165_331: - x165 - x331 >= -1
 c662_neq165_332: x165 + x332 >= 1
 c663_neq165_332: - x165 - x332 >= -1
 c664_neq166_333: x166 + x333 >= 1
 c665_neq166_333: - x166 - x333 >= -1
 c666_neq166_334: x166 + x334 >= 1
 c667_neq166_334: - x166 - x334 >= -1
 c668_neq167_335: x167 + x335 >= 1
 c669_neq167_335: - x167 - x335 >= -1
 c670_neq167_336: x167 + x336 >= 1
 c671_neq167_336: - x167 - x336 >= -1
 c672_neq168_337: x168 + x337 >= 1
 c673_neq168_337: - x168 - x337 >= -1
 c674_neq168_338: x168 + x338 >= 1
 c675_neq168_338: - x168 - x338 >= -1
 c676_neq169_339: x169 + x339 >= 1
 c677_neq169_339: - x169 - x339 >= -1
 c678_neq169_340: x169 + x340 >= 1
 c679_neq169_340: - x169 - x340 >= -1
 c680_neq170_341: x170 + x341 >= 1
 c681_neq170_341: - x170 - x341 >= -1
 c682_neq170_342: x170 + x342 >= 1
 c683_neq170_342: - x170 - x342 >= -1
 c684_neq171_343: x171 + x343 >= 1
 c685_neq171_343: - x171 - x343 >= -1
 c686_neq171_344: x171 + x344 >= 1
 c687_neq171_344: - x171 - x344 >= -1
 c688_neq172_345: x172 + x345 >= 1
 c689_neq172_345: - x172 - x345 >= -1
 c690_neq172_346: x172 + x346 >= 1
 c691_neq172_346: - x172 - x346 >= -1
 c692_neq173_347: x173 + x347 >= 1
 c693_neq173_347: - x173 - x347 >= -1
 c694_neq173_348: x173 + x348 >= 1
 c695_neq173_348: - x173 - x348 >= -1
 c696_neq174_349: x174 + x349 >= 1
 c697_neq174_349: - x174 - x349 >= -1
 c698_neq174_350: x174 + x350 >= 1
 c699_neq174_350: - x174 - x350 >= -1
 c700_neq175_351: x175 + x351 >= 1
 c701_neq175_351: - x175 - x351 >= -1
 c702_neq175_352: x175 + x352 >= 1
 c703_neq175_352: - x175 - x352 >= -1
 c704_neq176_353: x176 + x353 >= 1
 c705_neq176_353: - x176 - x353 >= -1
 c706_neq176_354: x176 + x354 >= 1
 c707_neq176_354: - x176 - x354 >= -1
 c708_neq177_355: x177 + x355 >= 1
 c709_neq177_355: - x177 - x355 >= -1
 c710_neq177_356: x177 + x356 >= 1
 c711_neq177_356: - x177 - x356 >= -1
 c712_neq178_357: x178 + x357 >= 1
 c713_neq178_357: - x178 - x357 >= -1
 c714_neq178_358: x178 + x358 >= 1
 c715_neq178_358: - x178 - x358 >= -1
 c716_neq179_359: x179 + x359 >= 1
 c717_neq179_359: - x179 - x359 >= -1
 c718_neq179_360: x179 + x360 >= 1
 c719_neq179_360: - x179 - x360 >= -1
 c720_neq180_361: x180 + x361 >= 1
 c721_neq180_361: - x180 - x361 >= -1
 c722_neq180_362: x180 + x362 >= 1
 c723_neq180_362: - x180 - x362 >= -1
 c724_neq181_363: x181 + x363 >= 1
 c725_neq181_363: - x181 - x363 >= -1
 c726_neq181_364: x181 + x364 >= 1
 c727_neq181_364: - x181 - x364 >= -1
 c728_neq182_365: x182 + x365 >= 1
 c729_neq182_365: - x182 - x365 >= -1
 c730_neq182_366: x182 + x366 >= 1
 c731_neq182_366: - x182 - x366 >= -1
 c732_neq183_367: x183 + x367 >= 1
 c733_neq183_367: - x183 - x367 >= -1
 c734_neq183_368: x183 + x368 >= 1
 c735_neq183_368: - x183 - x368 >= -1
 c736_neq184_369: x184 + x369 >= 1
 c737_neq184_369: - x184 - x369 >= -1
 c738_neq184_370: x184 + x370 >= 1
 c739_neq184_370: - x184 - x370 >= -1
 c740_neq185_371: x185 + x371 >= 1
 c741_neq185_371: - x185 - x371 >= -1
 c742_neq185_372: x185 + x372 >= 1
 c743_neq185_372: - x185 - x372 >= -1
 c744_neq186_373: x186 + x373 >= 1
 c745_neq186_373: - x186 - x373 >= -1
 c746_neq186_374: x186 + x374 >= 1
 c747_neq186_374: - x186 - x374 >= -1
 c748_neq187_375: x187 + x375 >= 1
 c749_neq187_375: - x187 - x375 >= -1
 c750_neq187_376: x187 + x376 >= 1
 c751_neq187_376: - x187 - x376 >= -1
 c752_neq188_377: x188 + x377 >= 1
 c753_neq188_377: - x188 - x377 >= -1
 c754_neq188_378: x188 + x378 >= 1
 c755_neq188_378: - x188 - x378 >= -1
 c756_neq189_379: x189 + x379 >= 1
 c757_neq189_379: - x189 - x379 >= -1
 c758_neq189_380: x189 + x380 >= 1
 c759_neq189_380: - x189 - x380 >= -1
 c760_neq190_381: x190 + x381 >= 1
 c761_neq190_381: - x190 - x381 >= -1
 c762_neq190_382: x190 + x382 >= 1
 c763_neq190_382: - x190 - x382 >= -1
 c764_neq191_383: x191 + x383 >= 1
 c765_neq191_383: - x191 - x383 >= -1
 c766_neq191_384: x191 + x384 >= 1
 c767_neq191_384: - x191 - x384 >= -1
 c768_neq192_385: x192 + x385 >= 1
 c769_neq192_385: - x192 - x385 >= -1
 c770_neq192_386: x192 + x386 >= 1
 c771_neq192_386: - x192 - x386 >= -1
 c772_neq193_387: x193 + x387 >= 1
 c773_neq193_387: - x193 - x387 >= -1
 c774_neq193_388: x193 + x388 >= 1
 c775_neq193_388: - x193 - x388 >= -1
 c776_neq194_389: x194 + x389 >= 1
 c777_neq194_389: - x194 - x389 >= -1
 c778_neq194_390: x194 + x390 >= 1
 c779_neq194_390: - x194 - x390 >= -1
 c780_neq195_391: x195 + x391 >= 1
 c781_neq195_391: - x195 - x391 >= -1
 c782_neq195_392: x195 + x392 >= 1
 c783_neq195_392: - x195 - x392 >= -1
 c784_neq196_393: x196 + x393 >= 1
 c785_neq196_393: - x196 - x393 >= -1
 c786_neq196_394: x196 + x394 >= 1
 c787_neq196_394: - x196 - x394 >= -1
 c788_neq197_395: x197 + x395 >= 1
 c789_neq197_395: - x197 - x395 >= -1
 c790_neq197_396: x197 + x396 >= 1
 c791_neq197_396: - x197 - x396 >= -1
 c792_neq198_397: x198 + x397 >= 1
 c793_neq198_397: - x198 - x397 >= -1
 c794_neq198_398: x198 + x398 >= 1
 c795_neq198_398: - x198 - x398 >= -1
 c796_neq199_399: x199 + x399 >= 1
 c797_neq199_399: - x199 - x399 >= -1
 c798_neq199_400: x199 + x400 >= 1
 c799_neq199_400: - x199 - x400 >= -1
 c800_neq200_401: x200 + x401 >= 1
 c801_neq200_401: - x200 - x401 >= -1
 c802_neq200_402: x200 + x402 >= 1
 c803_neq200_402: - x200 - x402 >= -1
 c804_neq201_403: x201 + x403 >= 1
 c805_neq201_403: - x201 - x403 >= -1
 c806_neq201_404: x201 + x404 >= 1
 c807_neq201_404: - x201 - x404 >= -1
 c808_neq202_405: x202 + x405 >= 1
 c809_neq202_405: - x202 - x405 >= -1
 c810_neq202_406: x202 + x406 >= 1
 c811_neq202_406: - x202 - x406 >= -1
 c812_neq203_407: x203 + x407 >= 1
 c813_neq203_407: - x203 - x407 >= -1
 c814_neq203_408: x203 + x408 >= 1
 c815_neq203_408: - x203 - x408 >= -1
 c816_neq204_409: x204 + x409 >= 1
 c817_neq204_409: - x204 - x409 >= -1
 c818_neq204_410: x204 + x410 >= 1
 c819_neq204_410: - x204 - x410 >= -1
 c820_neq205_411: x205 + x411 >= 1
 c821_neq205_411: - x205 - x411 >= -1
 c822_neq205_412: x205 + x412 >= 1
 c823_neq205_412: - x205 - x412 >= -1
 c824_neq206_413: x206 + x413 >= 1
 c825_neq206_413: - x206 - x413 >= -1
 c826_neq206_414: x206 + x414 >= 1
 c827_neq206_414: - x206 - x414 >= -1
 c828_neq207_415: x207 + x415 >= 1
 c829_neq207_415: - x207 - x415 >= -1
 c830_neq207_416: x207 + x416 >= 1
 c831_neq207_416: - x207 - x416 >= -1
 c832_neq208_417: x208 + x417 >= 1
 c833_neq208_417: - x208 - x417 >= -1
 c834_neq208_418: x208 + x418 >= 1
 c835_neq208_418: - x208 - x418 >= -1
 c836_neq209_419: x209 + x419 >= 1
 c837_neq209_419: - x209 - x419 >= -1
 c838_neq209_420: x209 + x420 >= 1
 c839_neq209_420: - x209 - x420 >= -1
 c840_neq210_421: x210 + x421 >= 1
 c841_neq210_421: - x210 - x421 >= -1
 c842_neq210_422: x210 + x422 >= 1
 c843_neq210_422: - x210 - x422 >= -1
 c844_neq211_423: x211 + x423 >= 1
 c845_neq211_423: - x211 - x423 >= -1
 c846_neq211_424: x211 + x424 >= 1
 c847_neq211_424: - x211 - x424 >= -1
 c848_neq212_425: x212 + x425 >= 1
 c849_neq212_425: - x212 - x425 >= -1
 c850_neq212_426: x212 + x426 >= 1
 c851_neq212_426: - x212 - x426 >= -1
 c852_neq213_427: x213 + x427 >= 1
 c853_neq213_427: - x213 - x427 >= -1
 c854_neq213_428: x213 + x428 >= 1
 c855_neq213_428: - x213 - x428 >= -1
 c856_neq214_429: x214 + x429 >= 1
 c857_neq214_429: - x214 - x429 >= -1
 c858_neq214_430: x214 + x430 >= 1
 c859_neq214_430: - x214 - x430 >= -1
 c860_neq215_431: x215 + x431 >= 1
 c861_neq215_431: - x215 - x431 >= -1
 c862_neq215_432: x215 + x432 >= 1
 c863_neq215_432: - x215 - x432 >= -1
 c864_neq216_433: x216 + x433 >= 1
 c865_neq216_433: - x216 - x433 >= -1
 c866_neq216_434: x216 + x434 >= 1
 c867_neq216_434: - x216 - x434 >= -1
 c868_neq217_435: x217 + x435 >= 1
 c869_neq217_435: - x217 - x435 >= -1
 c870_neq217_436: x217 + x436 >= 1
 c871_neq217_436: - x217 - x436 >= -1
 c872_neq218_437: x218 + x437 >= 1
 c873_neq218_437: - x218 - x437 >= -1
 c874_neq218_438: x218 + x438 >= 1
 c875_neq218_438: - x218 - x438 >= -1
 c876_neq219_439: x219 + x439 >= 1
 c877_neq219_439: - x219 - x439 >= -1
 c878_neq219_440: x219 + x440 >= 1
 c879_neq219_440: - x219 - x440 >= -1
 c880_neq220_441: x220 + x441 >= 1
 c881_neq220_441: - x220 - x441 >= -1
 c882_neq220_442: x220 + x442 >= 1
 c883_neq220_442: - x220 - x442 >= -1
 c884_neq221_443: x221 + x443 >= 1
 c885_neq221_443: - x221 - x443 >= -1
 c886_neq221_444: x221 + x444 >= 1
 c887_neq221_444: - x221 - x444 >= -1
 c888_neq222_445: x222 + x445 >= 1
 c889_neq222_445: - x222 - x445 >= -1
 c890_neq222_446: x222 + x446 >= 1
 c891_neq222_446: - x222 - x446 >= -1
 c892_neq223_447: x223 + x447 >= 1
 c893_neq223_447: - x223 - x447 >= -1
 c894_neq223_448: x223 + x448 >= 1
 c895_neq223_448: - x223 - x448 >= -1
 c896_neq224_449: x224 + x449 >= 1
 c897_neq224_449: - x224 - x449 >= -1
 c898_neq224_450: x224 + x450 >= 1
 c899_neq224_450: - x224 - x450 >= -1
 c900_neq225_451: x225 + x451 >= 1
 c901_neq225_451: - x225 - x451 >= -1
 c902_neq225_452: x225 + x452 >= 1
 c903_neq225_452: - x225 - x452 >= -1
 c904_neq226_453: x226 + x453 >= 1
 c905_neq226_453: - x226 - x453 >= -1
 c906_neq226_454: x226 + x454 >= 1
 c907_neq226_454: - x226 - x454 >= -1
 c908_neq227_455: x227 + x455 >= 1
 c909_neq227_455: - x227 - x455 >= -1
 c910_neq227_456: x227 + x456 >= 1
 c911_neq227_456: - x227 - x456 >= -1
 c912_neq228_457: x228 + x457 >= 1
 c913_neq228_457: - x228 - x457 >= -1
 c914_neq228_458: x228 + x458 >= 1
 c915_neq228_458: - x228 - x458 >= -1
 c916_neq229_459: x229 + x459 >= 1
 c917_neq229_459: - x229 - x459 >= -1
 c918_neq229_460: x229 + x460 >= 1
 c919_neq229_460: - x229 - x460 >= -1
 c920_neq230_461: x230 + x461 >= 1
 c921_neq230_461: - x230 - x461 >= -1
 c922_neq230_462: x230 + x462 >= 1
 c923_neq230_462: - x230 - x462 >= -1
 c924_neq231_463: x231 + x463 >= 1
 c925_neq231_463: - x231 - x463 >= -1
 c926_neq231_464: x231 + x464 >= 1
 c927_neq231_464: - x231 - x464 >= -1
 c928_neq232_465: x232 + x465 >= 1
 c929_neq232_465: - x232 - x465 >= -1
 c930_neq232_466: x232 + x466 >= 1
 c931_neq232_466: - x232 - x466 >= -1
 c932_neq233_467: x233 + x467 >= 1
 c933_neq233_467: - x233 - x467 >= -1
 c934_neq233_468: x233 + x468 >= 1
 c935_neq233_468: - x233 - x468 >= -1
 c936_neq234_469: x234 + x469 >= 1
 c937_neq234_469: - x234 - x469 >= -1
 c938_neq234_470: x234 + x470 >= 1
 c939_neq234_470: - x234 - x470 >= -1
 c940_neq235_471: x235 + x471 >= 1
 c941_neq235_471: - x235 - x471 >= -1
 c942_neq235_472: x235 + x472 >= 1
 c943_neq235_472: - x235 - x472 >= -1
 c944_neq236_473: x236 + x473 >= 1
 c945_neq236_473: - x236 - x473 >= -1
 c946_neq236_474: x236 + x474 >= 1
 c947_neq236_474: - x236 - x474 >= -1
 c948_neq237_475: x237 + x475 >= 1
 c949_neq237_475: - x237 - x475 >= -1
 c950_neq237_476: x237 + x476 >= 1
 c951_neq237_476: - x237 - x476 >= -1
 c952_neq238_477: x238 + x477 >= 1
 c953_neq238_477: - x238 - x477 >= -1
 c954_neq238_478: x238 + x478 >= 1
 c955_neq238_478: - x238 - x478 >= -1
 c956_neq239_479: x239 + x479 >= 1
 c957_neq239_479: - x239 - x479 >= -1
 c958_neq239_480: x239 + x480 >= 1
 c959_neq239_480: - x239 - x480 >= -1
 c960_neq240_481: x240 + x481 >= 1
 c961_neq240_481: - x240 - x481 >= -1
 c962_neq240_482: x240 + x482 >= 1
 c963_neq240_482: - x240 - x482 >= -1
 c964_neq241_483: x241 + x483 >= 1
 c965_neq241_483: - x241 - x483 >= -1
 c966_neq241_484: x241 + x484 >= 1
 c967_neq241_484: - x241 - x484 >= -1
 c968_neq242_485: x242 + x485 >= 1
 c969_neq242_485: - x242 - x485 >= -1
 c970_neq242_486: x242 + x486 >= 1
 c971_neq242_486: - x242 - x486 >= -1
 c972_neq243_487: x243 + x487 >= 1
 c973_neq243_487: - x243 - x487 >= -1
 c974_neq243_488: x243 + x488 >= 1
 c975_neq243_488: - x243 - x488 >= -1
 c976_neq244_489: x244 + x489 >= 1
 c977_neq244_489: - x244 - x489 >= -1
 c978_neq244_490: x244 + x490 >= 1
 c979_neq244_490: - x244 - x490 >= -1
 c980_neq245_491: x245 + x491 >= 1
 c981_neq245_491: - x245 - x491 >= -1
 c982_neq245_492: x245 + x492 >= 1
 c983_neq245_492: - x245 - x492 >= -1
 c984_neq246_493: x246 + x493 >= 1
 c985_neq246_493: - x246 - x493 >= -1
 c986_neq246_494: x246 + x494 >= 1
 c987_neq246_494: - x246 - x494 >= -1
 c988_neq247_495: x247 + x495 >= 1
 c989_neq247_495: - x247 - x495 >= -1
 c990_neq247_496: x247 + x496 >= 1
 c991_neq247_496: - x247 - x496 >= -1
 c992_neq248_497: x248 + x497 >= 1
 c993_neq248_497: - x248 - x497 >= -1
 c994_neq248_498: x248 + x498 >= 1
 c995_neq248_498: - x248 - x498 >= -1
 c996_neq249_499: x249 + x499 >= 1
 c997_neq249_499: - x249 - x499 >= -1
 c998_neq249_500: x249 + x500 >= 1
 c999_neq249_500: - x249 - x500 >= -1
 c1000_neq250_501: x250 + x501 >= 1
 c1001_neq250_501: - x250 - x501 >= -1
 c1002_neq250_502: x250 + x502 >= 1
 c1003_neq250_502: - x250 - x502 >= -1
 c1004_neq251_503: x251 + x503 >= 1
 c1005_neq251_503: - x251 - x503 >= -1
 c1006_neq251_504: x251 + x504 >= 1
 c1007_neq251_504: - x251 - x504 >= -1
 c1008_neq252_505: x252 + x505 >= 1
 c1009_neq252_505: - x252 - x505 >= -1
 c1010_neq252_506: x252 + x506 >= 1
 c1011_neq252_506: - x252 - x506 >= -1
 c1012_neq253_507: x253 + x507 >= 1
 c1013_neq253_507: - x253 - x507 >= -1
 c1014_neq253_508: x253 + x508 >= 1
 c1015_neq253_508: - x253 - x508 >= -1
 c1016_neq254_509: x254 + x509 >= 1
 c1017_neq254_509: - x254 - x509 >= -1
 c1018_neq254_510: x254 + x510 >= 1
 c1019_neq254_510: - x254 - x510 >= -1
 c1020_neq255_511: x255 + x511 >= 1
 c1021_neq255_511: - x255 - x511 >= -1
 c1022_neq255_512: x255 + x512 >= 1
 c1023_neq255_512: - x255 - x512 >= -1
 c1024_neq256_513: x256 + x513 >= 1
 c1025_neq256_513: - x256 - x513 >= -1
 c1026_neq256_514: x256 + x514 >= 1
 c1027_neq256_514: - x256 - x514 >= -1
 c1028_neq257_515: x257 + x515 >= 1
 c1029_neq257_515: - x257 - x515 >= -1
 c1030_neq257_516: x257 + x516 >= 1
 c1031_neq257_516: - x257 - x516 >= -1
 c1032_neq258_517: x258 + x517 >= 1
 c1033_neq258_517: - x258 - x517 >= -1
 c1034_neq258_518: x258 + x518 >= 1
 c1035_neq258_518: - x258 - x518 >= -1
 c1036_neq259_519: x259 + x519 >= 1
 c1037_neq259_519: - x259 - x519 >= -1
 c1038_neq259_520: x259 + x520 >= 1
 c1039_neq259_520: - x259 - x520 >= -1
 c1040_neq260_521: x260 + x521 >= 1
 c1041_neq260_521: - x260 - x521 >= -1
 c1042_neq260_522: x260 + x522 >= 1
 c1043_neq260_522: - x260 - x522 >= -1
 c1044_neq261_523: x261 + x523 >= 1
 c1045_neq261_523: - x261 - x523 >= -1
 c1046_neq261_524: x261 + x524 >= 1
 c1047_neq261_524: - x261 - x524 >= -1
 c1048_neq262_525: x262 + x525 >= 1
 c1049_neq262_525: - x262 - x525 >= -1
 c1050_neq262_526: x262 + x526 >= 1
 c1051_neq262_526: - x262 - x526 >= -1
 c1052_neq263_527: x263 + x527 >= 1
 c1053_neq263_527: - x263 - x527 >= -1
 c1054_neq263_528: x263 + x528 >= 1
 c1055_neq263_528: - x263 - x528 >= -1
 c1056_neq264_529: x264 + x529 >= 1
 c1057_neq264_529: - x264 - x529 >= -1
 c1058_neq264_530: x264 + x530 >= 1
 c1059_neq264_530: - x264 - x530 >= -1
 c1060_neq265_531: x265 + x531 >= 1
 c1061_neq265_531: - x265 - x531 >= -1
 c1062_neq265_532: x265 + x532 >= 1
 c1063_neq265_532: - x265 - x532 >= -1
 c1064_neq266_533: x266 + x533 >= 1
 c1065_neq266_533: - x266 - x533 >= -1
 c1066_neq266_534: x266 + x534 >= 1
 c1067_neq266_534: - x266 - x534 >= -1
 c1068_neq267_535: x267 + x535 >= 1
 c1069_neq267_535: - x267 - x535 >= -1
 c1070_neq267_536: x267 + x536 >= 1
 c1071_neq267_536: - x267 - x536 >= -1
 c1072_neq268_537: x268 + x537 >= 1
 c1073_neq268_537: - x268 - x537 >= -1
 c1074_neq268_538: x268 + x538 >= 1
 c1075_neq268_538: - x268 - x538 >= -1
 c1076_neq269_539: x269 + x539 >= 1
 c1077_neq269_539: - x269 - x539 >= -1
 c1078_neq269_540: x269 + x540 >= 1
 c1079_neq269_540: - x269 - x540 >= -1
 c1080_neq270_541: x270 + x541 >= 1
 c1081_neq270_541: - x270 - x541 >= -1
 c1082_neq270_542: x270 + x542 >= 1
 c1083_neq270_542: - x270 - x542 >= -1
 c1084_neq271_543: x271 + x543 >= 1
 c1085_neq271_543: - x271 - x543 >= -1
 c1086_neq271_544: x271 + x544 >= 1
 c1087_neq271_544: - x271 - x544 >= -1
 c1088_neq272_545: x272 + x545 >= 1
 c1089_neq272_545: - x272 - x545 >= -1
 c1090_neq272_546: x272 + x546 >= 1
 c1091_neq272_546: - x272 - x546 >= -1
 c1092_neq273_547: x273 + x547 >= 1
 c1093_neq273_547: - x273 - x547 >= -1
 c1094_neq273_548: x273 + x548 >= 1
 c1095_neq273_548: - x273 - x548 >= -1
 c1096_neq274_549: x274 + x549 >= 1
 c1097_neq274_549: - x274 - x549 >= -1
 c1098_neq274_550: x274 + x550 >= 1
 c1099_neq274_550: - x274 - x550 >= -1
 c1100_neq275_551: x275 + x551 >= 1
 c1101_neq275_551: - x275 - x551 >= -1
 c1102_neq275_552: x275 + x552 >= 1
 c1103_neq275_552: - x275 - x552 >= -1
 c1104_neq276_553: x276 + x553 >= 1
 c1105_neq276_553: - x276 - x553 >= -1
 c1106_neq276_554: x276 + x554 >= 1
 c1107_neq276_554: - x276 - x554 >= -1
 c1108_neq277_555: x277 + x555 >= 1
 c1109_neq277_555: - x277 - x555 >= -1
 c1110_neq277_556: x277 + x556 >= 1
 c1111_neq277_556: - x277 - x556 >= -1
 c1112_neq278_557: x278 + x557 >= 1
 c1113_neq278_557: - x278 - x557 >= -1
 c1114_neq278_558: x278 + x558 >= 1
 c1115_neq278_558: - x278 - x558 >= -1
 c1116_neq279_559: x279 + x559 >= 1
 c1117_neq279_559: - x279 - x559 >= -1
 c1118_neq279_560: x279 + x560 >= 1
 c1119_neq279_560: - x279 - x560 >= -1
 c1120_neq280_561: x280 + x561 >= 1
 c1121_neq280_561: - x280 - x561 >= -1
 c1122_neq280_562: x280 + x562 >= 1
 c1123_neq280_562: - x280 - x562 >= -1
 c1124_neq281_563: x281 + x563 >= 1
 c1125_neq281_563: - x281 - x563 >= -1
 c1126_neq281_564: x281 + x564 >= 1
 c1127_neq281_564: - x281 - x564 >= -1
 c1128_neq282_565: x282 + x565 >= 1
 c1129_neq282_565: - x282 - x565 >= -1
 c1130_neq282_566: x282 + x566 >= 1
 c1131_neq282_566: - x282 - x566 >= -1
 c1132_neq283_567: x283 + x567 >= 1
 c1133_neq283_567: - x283 - x567 >= -1
 c1134_neq283_568: x283 + x568 >= 1
 c1135_neq283_568: - x283 - x568 >= -1
 c1136_neq284_569: x284 + x569 >= 1
 c1137_neq284_569: - x284 - x569 >= -1
 c1138_neq284_570: x284 + x570 >= 1
 c1139_neq284_570: - x284 - x570 >= -1
 c1140_neq285_571: x285 + x571 >= 1
 c1141_neq285_571: - x285 - x571 >= -1
 c1142_neq285_572: x285 + x572 >= 1
 c1143_neq285_572: - x285 - x572 >= -1
 c1144_neq286_573: x286 + x573 >= 1
 c1145_neq286_573: - x286 - x573 >= -1
 c1146_neq286_574: x286 + x574 >= 1
 c1147_neq286_574: - x286 - x574 >= -1
 c1148_neq287_575: x287 + x575 >= 1
 c1149_neq287_575: - x287 - x575 >= -1
 c1150_neq287_576: x287 + x576 >= 1
 c1151_neq287_576: - x287 - x576 >= -1
 c1152_neq288_577: x288 + x577 >= 1
 c1153_neq288_577: - x288 - x577 >= -1
 c1154_neq288_578: x288 + x578 >= 1
 c1155_neq288_578: - x288 - x578 >= -1
 c1156_neq289_579: x289 + x579 >= 1
 c1157_neq289_579: - x289 - x579 >= -1
 c1158_neq289_580: x289 + x580 >= 1
 c1159_neq289_580: - x289 - x580 >= -1
 c1160_neq290_581: x290 + x581 >= 1
 c1161_neq290_581: - x290 - x581 >= -1
 c1162_neq290_582: x290 + x582 >= 1
 c1163_neq290_582: - x290 - x582 >= -1
 c1164_neq291_583: x291 + x583 >= 1
 c1165_neq291_583: - x291 - x583 >= -1
 c1166_neq291_584: x291 + x584 >= 1
 c1167_neq291_584: - x291 - x584 >= -1
 c1168_neq292_585: x292 + x585 >= 1
 c1169_neq292_585: - x292 - x585 >= -1
 c1170_neq292_586: x292 + x586 >= 1
 c1171_neq292_586: - x292 - x586 >= -1
 c1172_neq293_587: x293 + x587 >= 1
 c1173_neq293_587: - x293 - x587 >= -1
 c1174_neq293_588: x293 + x588 >= 1
 c1175_neq293_588: - x293 - x588 >= -1
 c1176_neq294_589: x294 + x589 >= 1
 c1177_neq294_589: - x294 - x589 >= -1
 c1178_neq294_590: x294 + x590 >= 1
 c1179_neq294_590: - x294 - x590 >= -1
 c1180_neq295_591: x295 + x591 >= 1
 c1181_neq295_591: - x295 - x591 >= -1
 c1182_neq295_592: x295 + x592 >= 1
 c1183_neq295_592: - x295 - x592 >= -1
 c1184_neq296_593: x296 + x593 >= 1
 c1185_neq296_593: - x296 - x593 >= -1
 c1186_neq296_594: x296 + x594 >= 1
 c1187_neq296_594: - x296 - x594 >= -1
 c1188_neq297_595: x297 + x595 >= 1
 c1189_neq297_595: - x297 - x595 >= -1
 c1190_neq297_596: x297 + x596 >= 1
 c1191_neq297_596: - x297 - x596 >= -1
 c1192_neq298_597: x298 + x597 >= 1
 c1193_neq298_597: - x298 - x597 >= -1
 c1194_neq298_598: x298 + x598 >= 1
 c1195_neq298_598: - x298 - x598 >= -1
 c1196_neq299_599: x299 + x599 >= 1
 c1197_neq299_599: - x299 - x599 >= -1
 c1198_neq299_600: x299 + x600 >= 1
 c1199_neq299_600: - x299 - x600 >= -1
 c1200_neq300_601: x300 + x601 >= 1
 c1201_neq300_601: - x300 - x601 >= -1
 c1202_neq300_602: x300 + x602 >= 1
 c1203_neq300_602: - x300 - x602 >= -1
 c1204_neq301_603: x301 + x603 >= 1
 c1205_neq301_603: - x301 - x603 >= -1
 c1206_neq301_604: x301 + x604 >= 1
 c1207_neq301_604: - x301 - x604 >= -1
 c1208_neq302_605: x302 + x605 >= 1
 c1209_neq302_605: - x302 - x605 >= -1
 c1210_neq302_606: x302 + x606 >= 1
 c1211_neq302_606: - x302 - x606 >= -1
 c1212_neq303_607: x303 + x607 >= 1
 c1213_neq303_607: - x303 - x607 >= -1
 c1214_neq303_608: x303 + x608 >= 1
 c1215_neq303_608: - x303 - x608 >= -1
 c1216_neq304_609: x304 + x609 >= 1
 c1217_neq304_609: - x304 - x609 >= -1
 c1218_neq304_610: x304 + x610 >= 1
 c1219_neq304_610: - x304 - x610 >= -1
 c1220_neq305_611: x305 + x611 >= 1
 c1221_neq305_611: - x305 - x611 >= -1
 c1222_neq305_612: x305 + x612 >= 1
 c1223_neq305_612: - x305 - x612 >= -1
 c1224_neq306_613: x306 + x613 >= 1
 c1225_neq306_613: - x306 - x613 >= -1
 c1226_neq306_614: x306 + x614 >= 1
 c1227_neq306_614: - x306 - x614 >= -1
 c1228_neq307_615: x307 + x615 >= 1
 c1229_neq307_615: - x307 - x615 >= -1
 c1230_neq307_616: x307 + x616 >= 1
 c1231_neq307_616: - x307 - x616 >= -1
 c1232_neq308_617: x308 + x617 >= 1
 c1233_neq308_617: - x308 - x617 >= -1
 c1234_neq308_618: x308 + x618 >= 1
 c1235_neq308_618: - x308 - x618 >= -1
 c1236_neq309_619: x309 + x619 >= 1
 c1237_neq309_619: - x309 - x619 >= -1
 c1238_neq309_620: x309 + x620 >= 1
 c1239_neq309_620: - x309 - x620 >= -1
 c1240_neq310_621: x310 + x621 >= 1
 c1241_neq310_621: - x310 - x621 >= -1
 c1242_neq310_622: x310 + x622 >= 1
 c1243_neq310_622: - x310 - x622 >= -1
 c1244_neq311_623: x311 + x623 >= 1
 c1245_neq311_623: - x311 - x623 >= -1
 c1246_neq311_624: x311 + x624 >= 1
 c1247_neq311_624: - x311 - x624 >= -1
 c1248_neq312_625: x312 + x625 >= 1
 c1249_neq312_625: - x312 - x625 >= -1
 c1250_neq312_626: x312 + x626 >= 1
 c1251_neq312_626: - x312 - x626 >= -1
 c1252_neq313_627: x313 + x627 >= 1
 c1253_neq313_627: - x313 - x627 >= -1
 c1254_neq313_628: x313 + x628 >= 1
 c1255_neq313_628: - x313 - x628 >= -1
 c1256_neq314_629: x314 + x629 >= 1
 c1257_neq314_629: - x314 - x629 >= -1
 c1258_neq314_630: x314 + x630 >= 1
 c1259_neq314_630: - x314 - x630 >= -1
 c1260_neq315_631: x315 + x631 >= 1
 c1261_neq315_631: - x315 - x631 >= -1
 c1262_neq315_632: x315 + x632 >= 1
 c1263_neq315_632: - x315 - x632 >= -1
 c1264_neq316_633: x316 + x633 >= 1
 c1265_neq316_633: - x316 - x633 >= -1
 c1266_neq316_634: x316 + x634 >= 1
 c1267_neq316_634: - x316 - x634 >= -1
 c1268_neq317_635: x317 + x635 >= 1
 c1269_neq317_635: - x317 - x635 >= -1
 c1270_neq317_636: x317 + x636 >= 1
 c1271_neq317_636: - x317 - x636 >= -1
 c1272_neq318_637: x318 + x637 >= 1
 c1273_neq318_637: - x318 - x637 >= -1
 c1274_neq318_638: x318 + x638 >= 1
 c1275_neq318_638: - x318 - x638 >= -1
 c1276_neq319_639: x319 + x639 >= 1
 c1277_neq319_639: - x319 - x639 >= -1
 c1278_neq319_640: x319 + x640 >= 1
 c1279_neq319_640: - x319 - x640 >= -1
 c1280_neq320_641: x320 + x641 >= 1
 c1281_neq320_641: - x320 - x641 >= -1
 c1282_neq320_642: x320 + x642 >= 1
 c1283_neq320_642: - x320 - x642 >= -1
 c1284_neq321_643: x321 + x643 >= 1
 c1285_neq321_643: - x321 - x643 >= -1
 c1286_neq321_644: x321 + x644 >= 1
 c1287_neq321_644: - x321 - x644 >= -1
 c1288_neq322_645: x322 + x645 >= 1
 c1289_neq322_645: - x322 - x645 >= -1
 c1290_neq322_646: x322 + x646 >= 1
 c1291_neq322_646: - x322 - x646 >= -1
 c1292_neq323_647: x323 + x647 >= 1
 c1293_neq323_647: - x323 - x647 >= -1
 c1294_neq323_648: x323 + x648 >= 1
 c1295_neq323_648: - x323 - x648 >= -1
 c1296_neq324_649: x324 + x649 >= 1
 c1297_neq324_649: - x324 - x649 >= -1
 c1298_neq324_650: x324 + x650 >= 1
 c1299_neq324_650: - x324 - x650 >= -1
 c1300_neq325_651: x325 + x651 >= 1
 c1301_neq325_651: - x325 - x651 >= -1
 c1302_neq325_652: x325 + x652 >= 1
 c1303_neq325_652: - x325 - x652 >= -1
 c1304_neq326_653: x326 + x653 >= 1
 c1305_neq326_653: - x326 - x653 >= -1
 c1306_neq326_654: x326 + x654 >= 1
 c1307_neq326_654: - x326 - x654 >= -1
 c1308_neq327_655: x327 + x655 >= 1
 c1309_neq327_655: - x327 - x655 >= -1
 c1310_neq327_656: x327 + x656 >= 1
 c1311_neq327_656: - x327 - x656 >= -1
 c1312_neq328_657: x328 + x657 >= 1
 c1313_neq328_657: - x328 - x657 >= -1
 c1314_neq328_658: x328 + x658 >= 1
 c1315_neq328_658: - x328 - x658 >= -1
 c1316_neq329_659: x329 + x659 >= 1
 c1317_neq329_659: - x329 - x659 >= -1
 c1318_neq329_660: x329 + x660 >= 1
 c1319_neq329_660: - x329 - x660 >= -1
 c1320_neq330_661: x330 + x661 >= 1
 c1321_neq330_661: - x330 - x661 >= -1
 c1322_neq330_662: x330 + x662 >= 1
 c1323_neq330_662: - x330 - x662 >= -1
 c1324_neq331_663: x331 + x663 >= 1
 c1325_neq331_663: - x331 - x663 >= -1
 c1326_neq331_664: x331 + x664 >= 1
 c1327_neq331_664: - x331 - x664 >= -1
 c1328_neq332_665: x332 + x665 >= 1
 c1329_neq332_665: - x332 - x665 >= -1
 c1330_neq332_666: x332 + x666 >= 1
 c1331_neq332_666: - x332 - x666 >= -1
 c1332_neq333_667: x333 + x667 >= 1
 c1333_neq333_667: - x333 - x667 >= -1
 c1334_neq333_668: x333 + x668 >= 1
 c1335_neq333_668: - x333 - x668 >= -1
 c1336_neq334_669: x334 + x669 >= 1
 c1337_neq334_669: - x334 - x669 >= -1
 c1338_neq334_670: x334 + x670 >= 1
 c1339_neq334_670: - x334 - x670 >= -1
 c1340_neq335_671: x335 + x671 >= 1
 c1341_neq335_671: - x335 - x671 >= -1
 c1342_neq335_672: x335 + x672 >= 1
 c1343_neq335_672: - x335 - x672 >= -1
 c1344_neq336_673: x336 + x673 >= 1
 c1345_neq336_673: - x336 - x673 >= -1
 c1346_neq336_674: x336 + x674 >= 1
 c1347_neq336_674: - x336 - x674 >= -1
 c1348_neq337_675: x337 + x675 >= 1
 c1349_neq337_675: - x337 - x675 >= -1
 c1350_neq337_676: x337 + x676 >= 1
 c1351_neq337_676: - x337 - x676 >= -1
 c1352_neq338_677: x338 + x677 >= 1
 c1353_neq338_677: - x338 - x677 >= -1
 c1354_neq338_678: x338 + x678 >= 1
 c1355_neq338_678: - x338 - x678 >= -1
 c1356_neq339_679: x339 + x679 >= 1
 c1357_neq339_679: - x339 - x679 >= -1
 c1358_neq339_680: x339 + x680 >= 1
 c1359_neq339_680: - x339 - x680 >= -1
 c1360_neq340_681: x340 + x681 >= 1
 c1361_neq340_681: - x340 - x681 >= -1
 c1362_neq340_682: x340 + x682 >= 1
 c1363_neq340_682: - x340 - x682 >= -1
 c1364_neq341_683: x341 + x683 >= 1
 c1365_neq341_683: - x341 - x683 >= -1
 c1366_neq341_684: x341 + x684 >= 1
 c1367_neq341_684: - x341 - x684 >= -1
 c1368_neq342_685: x342 + x685 >= 1
 c1369_neq342_685: - x342 - x685 >= -1
 c1370_neq342_686: x342 + x686 >= 1
 c1371_neq342_686: - x342 - x686 >= -1
 c1372_neq343_687: x343 + x687 >= 1
 c1373_neq343_687: - x343 - x687 >= -1
 c1374_neq343_688: x343 + x688 >= 1
 c1375_neq343_688: - x343 - x688 >= -1
 c1376_neq344_689: x344 + x689 >= 1
 c1377_neq344_689: - x344 - x689 >= -1
 c1378_neq344_690: x344 + x690 >= 1
 c1379_neq344_690: - x344 - x690 >= -1
 c1380_neq345_691: x345 + x691 >= 1
 c1381_neq345_691: - x345 - x691 >= -1
 c1382_neq345_692: x345 + x692 >= 1
 c1383_neq345_692: - x345 - x692 >= -1
 c1384_neq346_693: x346 + x693 >= 1
 c1385_neq346_693: - x346 - x693 >= -1
 c1386_neq346_694: x346 + x694 >= 1
 c1387_neq346_694: - x346 - x694 >= -1
 c1388_neq347_695: x347 + x695 >= 1
 c1389_neq347_695: - x347 - x695 >= -1
 c1390_neq347_696: x347 + x696 >= 1
 c1391_neq347_696: - x347 - x696 >= -1
 c1392_neq348_697: x348 + x697 >= 1
 c1393_neq348_697: - x348 - x697 >= -1
 c1394_neq348_698: x348 + x698 >= 1
 c1395_neq348_698: - x348 - x698 >= -1
 c1396_neq349_699: x349 + x699 >= 1
 c1397_neq349_699: - x349 - x699 >= -1
 c1398_neq349_700: x349 + x700 >= 1
 c1399_neq349_700: - x349 - x700 >= -1
 c1400_neq350_701: x350 + x701 >= 1
 c1401_neq350_701: - x350 - x701 >= -1
 c1402_neq350_702: x350 + x702 >= 1
 c1403_neq350_702: - x350 - x702 >= -1
 c1404_neq351_703: x351 + x703 >= 1
 c1405_neq351_703: - x351 - x703 >= -1
 c1406_neq351_704: x351 + x704 >= 1
 c1407_neq351_704: - x351 - x704 >= -1
 c1408_neq352_705: x352 + x705 >= 1
 c1409_neq352_705: - x352 - x705 >= -1
 c1410_neq352_706: x352 + x706 >= 1
 c1411_neq352_706: - x352 - x706 >= -1
 c1412_neq353_707: x353 + x707 >= 1
 c1413_neq353_707: - x353 - x707 >= -1
 c1414_neq353_708: x353 + x708 >= 1
 c1415_neq353_708: - x353 - x708 >= -1
 c1416_neq354_709: x354 + x709 >= 1
 c1417_neq354_709: - x354 - x709 >= -1
 c1418_neq354_710: x354 + x710 >= 1
 c1419_neq354_710: - x354 - x710 >= -1
 c1420_neq355_711: x355 + x711 >= 1
 c1421_neq355_711: - x355 - x711 >= -1
 c1422_neq355_712: x355 + x712 >= 1
 c1423_neq355_712: - x355 - x712 >= -1
 c1424_neq356_713: x356 + x713 >= 1
 c1425_neq356_713: - x356 - x713 >= -1
 c1426_neq356_714: x356 + x714 >= 1
 c1427_neq356_714: - x356 - x714 >= -1
 c1428_neq357_715: x357 + x715 >= 1
 c1429_neq357_715: - x357 - x715 >= -1
 c1430_neq357_716: x357 + x716 >= 1
 c1431_neq357_716: - x357 - x716 >= -1
 c1432_neq358_717: x358 + x717 >= 1
 c1433_neq358_717: - x358 - x717 >= -1
 c1434_neq358_718: x358 + x718 >= 1
 c1435_neq358_718: - x358 - x718 >= -1
 c1436_neq359_719: x359 + x719 >= 1
 c1437_neq359_719: - x359 - x719 >= -1
 c1438_neq359_720: x359 + x720 >= 1
 c1439_neq359_720: - x359 - x720 >= -1
 c1440_neq360_721: x360 + x721 >= 1
 c1441_neq360_721: - x360 - x721 >= -1
 c1442_neq360_722: x360 + x722 >= 1
 c1443_neq360_722: - x360 - x722 >= -1
 c1444_neq361_723: x361 + x723 >= 1
 c1445_neq361_723: - x361 - x723 >= -1
 c1446_neq361_724: x361 + x724 >= 1
 c1447_neq361_724: - x361 - x724 >= -1
 c1448_neq362_725: x362 + x725 >= 1
 c1449_neq362_725: - x362 - x725 >= -1
 c1450_neq362_726: x362 + x726 >= 1
 c1451_neq362_726: - x362 - x726 >= -1
 c1452_neq363_727: x363 + x727 >= 1
 c1453_neq363_727: - x363 - x727 >= -1
 c1454_neq363_728: x363 + x728 >= 1
 c1455_neq363_728: - x363 - x728 >= -1
 c1456_neq364_729: x364 + x729 >= 1
 c1457_neq364_729: - x364 - x729 >= -1
 c1458_neq364_730: x364 + x730 >= 1
 c1459_neq364_730: - x364 - x730 >= -1
 c1460_neq365_731: x365 + x731 >= 1
 c1461_neq365_731: - x365 - x731 >= -1
 c1462_neq365_732: x365 + x732 >= 1
 c1463_neq365_732: - x365 - x732 >= -1
 c1464_neq366_733: x366 + x733 >= 1
 c1465_neq366_733: - x366 - x733 >= -1
 c1466_neq366_734: x366 + x734 >= 1
 c1467_neq366_734: - x366 - x734 >= -1
 c1468_neq367_735: x367 + x735 >= 1
 c1469_neq367_735: - x367 - x735 >= -1
 c1470_neq367_736: x367 + x736 >= 1
 c1471_neq367_736: - x367 - x736 >= -1
 c1472_neq368_737: x368 + x737 >= 1
 c1473_neq368_737: - x368 - x737 >= -1
 c1474_neq368_738: x368 + x738 >= 1
 c1475_neq368_738: - x368 - x738 >= -1
 c1476_neq369_739: x369 + x739 >= 1
 c1477_neq369_739: - x369 - x739 >= -1
 c1478_neq369_740: x369 + x740 >= 1
 c1479_neq369_740: - x369 - x740 >= -1
 c1480_neq370_741: x370 + x741 >= 1
 c1481_neq370_741: - x370 - x741 >= -1
 c1482_neq370_742: x370 + x742 >= 1
 c1483_neq370_742: - x370 - x742 >= -1
 c1484_neq371_743: x371 + x743 >= 1
 c1485_neq371_743: - x371 - x743 >= -1
 c1486_neq371_744: x371 + x744 >= 1
 c1487_neq371_744: - x371 - x744 >= -1
 c1488_neq372_745: x372 + x745 >= 1
 c1489_neq372_745: - x372 - x745 >= -1
 c1490_neq372_746: x372 + x746 >= 1
 c1491_neq372_746: - x372 - x746 >= -1
 c1492_neq373_747: x373 + x747 >= 1
 c1493_neq373_747: - x373 - x747 >= -1
 c1494_neq373_748: x373 + x748 >= 1
 c1495_neq373_748: - x373 - x748 >= -1
 c1496_neq374_749: x374 + x749 >= 1
 c1497_neq374_749: - x374 - x749 >= -1
 c1498_neq374_750: x374 + x750 >= 1
 c1499_neq374_750: - x374 - x750 >= -1
 c1500_neq375_751: x375 + x751 >= 1
 c1501_neq375_751: - x375 - x751 >= -1
 c1502_neq375_752: x375 + x752 >= 1
 c1503_neq375_752: - x375 - x752 >= -1
 c1504_neq376_753: x376 + x753 >= 1
 c1505_neq376_753: - x376 - x753 >= -1
 c1506_neq376_754: x376 + x754 >= 1
 c1507_neq376_754: - x376 - x754 >= -1
 c1508_neq377_755: x377 + x755 >= 1
 c1509_neq377_755: - x377 - x755 >= -1
 c1510_neq377_756: x377 + x756 >= 1
 c1511_neq377_756: - x377 - x756 >= -1
 c1512_neq378_757: x378 + x757 >= 1
 c1513_neq378_757: - x378 - x757 >= -1
 c1514_neq378_758: x378 + x758 >= 1
 c1515_neq378_758: - x378 - x758 >= -1
 c1516_neq379_759: x379 + x759 >= 1
 c1517_neq379_759: - x379 - x759 >= -1
 c1518_neq379_760: x379 + x760 >= 1
 c1519_neq379_760: - x379 - x760 >= -1
 c1520_neq380_761: x380 + x761 >= 1
 c1521_neq380_761: - x380 - x761 >= -1
 c1522_neq380_762: x380 + x762 >= 1
 c1523_neq380_762: - x380 - x762 >= -1
 c1524_neq381_763: x381 + x763 >= 1
 c1525_neq381_763: - x381 - x763 >= -1
 c1526_neq381_764: x381 + x764 >= 1
 c1527_neq381_764: - x381 - x764 >= -1
 c1528_neq382_765: x382 + x765 >= 1
 c1529_neq382_765: - x382 - x765 >= -1
 c1530_neq382_766: x382 + x766 >= 1
 c1531_neq382_766: - x382 - x766 >= -1
 c1532_neq383_767: x383 + x767 >= 1
 c1533_neq383_767: - x383 - x767 >= -1
 c1534_neq383_768: x383 + x768 >= 1
 c1535_neq383_768: - x383 - x768 >= -1
 c1536_neq384_769: x384 + x769 >= 1
 c1537_neq384_769: - x384 - x769 >= -1
 c1538_neq384_770: x384 + x770 >= 1
 c1539_neq384_770: - x384 - x770 >= -1
 c1540_neq385_771: x385 + x771 >= 1
 c1541_neq385_771: - x385 - x771 >= -1
 c1542_neq385_772: x385 + x772 >= 1
 c1543_neq385_772: - x385 - x772 >= -1
 c1544_neq386_773: x386 + x773 >= 1
 c1545_neq386_773: - x386 - x773 >= -1
 c1546_neq386_774: x386 + x774 >= 1
 c1547_neq386_774: - x386 - x774 >= -1
 c1548_neq387_775: x387 + x775 >= 1
 c1549_neq387_775: - x387 - x775 >= -1
 c1550_neq387_776: x387 + x776 >= 1
 c1551_neq387_776: - x387 - x776 >= -1
 c1552_neq388_777: x388 + x777 >= 1
 c1553_neq388_777: - x388 - x777 >= -1
 c1554_neq388_778: x388 + x778 >= 1
 c1555_neq388_778: - x388 - x778 >= -1
 c1556_neq389_779: x389 + x779 >= 1
 c1557_neq389_779: - x389 - x779 >= -1
 c1558_neq389_780: x389 + x780 >= 1
 c1559_neq389_780: - x389 - x780 >= -1
 c1560_neq390_781: x390 + x781 >= 1
 c1561_neq390_781: - x390 - x781 >= -1
 c1562_neq390_782: x390 + x782 >= 1
 c1563_neq390_782: - x390 - x782 >= -1
 c1564_neq391_783: x391 + x783 >= 1
 c1565_neq391_783: - x391 - x783 >= -1
 c1566_neq391_784: x391 + x784 >= 1
 c1567_neq391_784: - x391 - x784 >= -1
 c1568_neq392_785: x392 + x785 >= 1
 c1569_neq392_785: - x392 - x785 >= -1
 c1570_neq392_786: x392 + x786 >= 1
 c1571_neq392_786: - x392 - x786 >= -1
 c1572_neq393_787: x393 + x787 >= 1
 c1573_neq393_787: - x393 - x787 >= -1
 c1574_neq393_788: x393 + x788 >= 1
 c1575_neq393_788: - x393 - x788 >= -1
 c1576_neq394_789: x394 + x789 >= 1
 c1577_neq394_789: - x394 - x789 >= -1
 c1578_neq394_790: x394 + x790 >= 1
 c1579_neq394_790: - x394 - x790 >= -1
 c1580_neq395_791: x395 + x791 >= 1
 c1581_neq395_791: - x395 - x791 >= -1
 c1582_neq395_792: x395 + x792 >= 1
 c1583_neq395_792: - x395 - x792 >= -1
 c1584_neq396_793: x396 + x793 >= 1
 c1585_neq396_793: - x396 - x793 >= -1
 c1586_neq396_794: x396 + x794 >= 1
 c1587_neq396_794: - x396 - x794 >= -1
 c1588_neq397_795: x397 + x795 >= 1
 c1589_neq397_795: - x397 - x795 >= -1
 c1590_neq397_796: x397 + x796 >= 1
 c1591_neq397_796: - x397 - x796 >= -1
 c1592_neq398_797: x398 + x797 >= 1
 c1593_neq398_797: - x398 - x797 >= -1
 c1594_neq398_798: x398 + x798 >= 1
 c1595_neq398_798: - x398 - x798 >= -1
 c1596_neq399_799: x399 + x799 >= 1
 c1597_neq399_799: - x399 - x799 >= -1
 c1598_neq399_800: x399 + x800 >= 1
 c1599_neq399_800: - x399 - x800 >= -1
 c1600_neq400_801: x400 + x801 >= 1
 c1601_neq400_801: - x400 - x801 >= -1
 c1602_neq400_802: x400 + x802 >= 1
 c1603_neq400_802: - x400 - x802 >= -1
 c1604_neq401_803: x401 + x803 >= 1
 c1605_neq401_803: - x401 - x803 >= -1
 c1606_neq401_804: x401 + x804 >= 1
 c1607_neq401_804: - x401 - x804 >= -1
 c1608_neq402_805: x402 + x805 >= 1
 c1609_neq402_805: - x402 - x805 >= -1
 c1610_neq402_806: x402 + x806 >= 1
 c1611_neq402_806: - x402 - x806 >= -1
 c1612_neq403_807: x403 + x807 >= 1
 c1613_neq403_807: - x403 - x807 >= -1
 c1614_neq403_808: x403 + x808 >= 1
 c1615_neq403_808: - x403 - x808 >= -1
 c1616_neq404_809: x404 + x809 >= 1
 c1617_neq404_809: - x404 - x809 >= -1
 c1618_neq404_810: x404 + x810 >= 1
 c1619_neq404_810: - x404 - x810 >= -1
 c1620_neq405_811: x405 + x811 >= 1
 c1621_neq405_811: - x405 - x811 >= -1
 c1622_neq405_812: x405 + x812 >= 1
 c1623_neq405_812: - x405 - x812 >= -1
 c1624_neq406_813: x406 + x813 >= 1
 c1625_neq406_813: - x406 - x813 >= -1
 c1626_neq406_814: x406 + x814 >= 1
 c1627_neq406_814: - x406 - x814 >= -1
 c1628_neq407_815: x407 + x815 >= 1
 c1629_neq407_815: - x407 - x815 >= -1
 c1630_neq407_816: x407 + x816 >= 1
 c1631_neq407_816: - x407 - x816 >= -1
 c1632_neq408_817: x408 + x817 >= 1
 c1633_neq408_817: - x408 - x817 >= -1
 c1634_neq408_818: x408 + x818 >= 1
 c1635_neq408_818: - x408 - x818 >= -1
 c1636_neq409_819: x409 + x819 >= 1
 c1637_neq409_819: - x409 - x819 >= -1
 c1638_neq409_820: x409 + x820 >= 1
 c1639_neq409_820: - x409 - x820 >= -1
 c1640_neq410_821: x410 + x821 >= 1
 c1641_neq410_821: - x410 - x821 >= -1
 c1642_neq410_822: x410 + x822 >= 1
 c1643_neq410_822: - x410 - x822 >= -1
 c1644_neq411_823: x411 + x823 >= 1
 c1645_neq411_823: - x411 - x823 >= -1
 c1646_neq411_824: x411 + x824 >= 1
 c1647_neq411_824: - x411 - x824 >= -1
 c1648_neq412_825: x412 + x825 >= 1
 c1649_neq412_825: - x412 - x825 >= -1
 c1650_neq412_826: x412 + x826 >= 1
 c1651_neq412_826: - x412 - x826 >= -1
 c1652_neq413_827: x413 + x827 >= 1
 c1653_neq413_827: - x413 - x827 >= -1
 c1654_neq413_828: x413 + x828 >= 1
 c1655_neq413_828: - x413 - x828 >= -1
 c1656_neq414_829: x414 + x829 >= 1
 c1657_neq414_829: - x414 - x829 >= -1
 c1658_neq414_830: x414 + x830 >= 1
 c1659_neq414_830: - x414 - x830 >= -1
 c1660_neq415_831: x415 + x831 >= 1
 c1661_neq415_831: - x415 - x831 >= -1
 c1662_neq415_832: x415 + x832 >= 1
 c1663_neq415_832: - x415 - x832 >= -1
 c1664_neq416_833: x416 + x833 >= 1
 c1665_neq416_833: - x416 - x833 >= -1
 c1666_neq416_834: x416 + x834 >= 1
 c1667_neq416_834: - x416 - x834 >= -1
 c1668_neq417_835: x417 + x835 >= 1
 c1669_neq417_835: - x417 - x835 >= -1
 c1670_neq417_836: x417 + x836 >= 1
 c1671_neq417_836: - x417 - x836 >= -1
 c1672_neq418_837: x418 + x837 >= 1
 c1673_neq418_837: - x418 - x837 >= -1
 c1674_neq418_838: x418 + x838 >= 1
 c1675_neq418_838: - x418 - x838 >= -1
 c1676_neq419_839: x419 + x839 >= 1
 c1677_neq419_839: - x419 - x839 >= -1
 c1678_neq419_840: x419 + x840 >= 1
 c1679_neq419_840: - x419 - x840 >= -1
 c1680_neq420_841: x420 + x841 >= 1
 c1681_neq420_841: - x420 - x841 >= -1
 c1682_neq420_842: x420 + x842 >= 1
 c1683_neq420_842: - x420 - x842 >= -1
 c1684_neq421_843: x421 + x843 >= 1
 c1685_neq421_843: - x421 - x843 >= -1
 c1686_neq421_844: x421 + x844 >= 1
 c1687_neq421_844: - x421 - x844 >= -1
 c1688_neq422_845: x422 + x845 >= 1
 c1689_neq422_845: - x422 - x845 >= -1
 c1690_neq422_846: x422 + x846 >= 1
 c1691_neq422_846: - x422 - x846 >= -1
 c1692_neq423_847: x423 + x847 >= 1
 c1693_neq423_847: - x423 - x847 >= -1
 c1694_neq423_848: x423 + x848 >= 1
 c1695_neq423_848: - x423 - x848 >= -1
 c1696_neq424_849: x424 + x849 >= 1
 c1697_neq424_849: - x424 - x849 >= -1
 c1698_neq424_850: x424 + x850 >= 1
 c1699_neq424_850: - x424 - x850 >= -1
 c1700_neq425_851: x425 + x851 >= 1
 c1701_neq425_851: - x425 - x851 >= -1
 c1702_neq425_852: x425 + x852 >= 1
 c1703_neq425_852: - x425 - x852 >= -1
 c1704_neq426_853: x426 + x853 >= 1
 c1705_neq426_853: - x426 - x853 >= -1
 c1706_neq426_854: x426 + x854 >= 1
 c1707_neq426_854: - x426 - x854 >= -1
 c1708_neq427_855: x427 + x855 >= 1
 c1709_neq427_855: - x427 - x855 >= -1
 c1710_neq427_856: x427 + x856 >= 1
 c1711_neq427_856: - x427 - x856 >= -1
 c1712_neq428_857: x428 + x857 >= 1
 c1713_neq428_857: - x428 - x857 >= -1
 c1714_neq428_858: x428 + x858 >= 1
 c1715_neq428_858: - x428 - x858 >= -1
 c1716_neq429_859: x429 + x859 >= 1
 c1717_neq429_859: - x429 - x859 >= -1
 c1718_neq429_860: x429 + x860 >= 1
 c1719_neq429_860: - x429 - x860 >= -1
 c1720_neq430_861: x430 + x861 >= 1
 c1721_neq430_861: - x430 - x861 >= -1
 c1722_neq430_862: x430 + x862 >= 1
 c1723_neq430_862: - x430 - x862 >= -1
 c1724_neq431_863: x431 + x863 >= 1
 c1725_neq431_863: - x431 - x863 >= -1
 c1726_neq431_864: x431 + x864 >= 1
 c1727_neq431_864: - x431 - x864 >= -1
 c1728_neq432_865: x432 + x865 >= 1
 c1729_neq432_865: - x432 - x865 >= -1
 c1730_neq432_866: x432 + x866 >= 1
 c1731_neq432_866: - x432 - x866 >= -1
 c1732_neq433_867: x433 + x867 >= 1
 c1733_neq433_867: - x433 - x867 >= -1
 c1734_neq433_868: x433 + x868 >= 1
 c1735_neq433_868: - x433 - x868 >= -1
 c1736_neq434_869: x434 + x869 >= 1
 c1737_neq434_869: - x434 - x869 >= -1
 c1738_neq434_870: x434 + x870 >= 1
 c1739_neq434_870: - x434 - x870 >= -1
 c1740_neq435_871: x435 + x871 >= 1
 c1741_neq435_871: - x435 - x871 >= -1
 c1742_neq435_872: x435 + x872 >= 1
 c1743_neq435_872: - x435 - x872 >= -1
 c1744_neq436_873: x436 + x873 >= 1
 c1745_neq436_873: - x436 - x873 >= -1
 c1746_neq436_874: x436 + x874 >= 1
 c1747_neq436_874: - x436 - x874 >= -1
 c1748_neq437_875: x437 + x875 >= 1
 c1749_neq437_875: - x437 - x875 >= -1
 c1750_neq437_876: x437 + x876 >= 1
 c1751_neq437_876: - x437 - x876 >= -1
 c1752_neq438_877: x438 + x877 >= 1
 c1753_neq438_877: - x438 - x877 >= -1
 c1754_neq438_878: x438 + x878 >= 1
 c1755_neq438_878: - x438 - x878 >= -1
 c1756_neq439_879: x439 + x879 >= 1
 c1757_neq439_879: - x439 - x879 >= -1
 c1758_neq439_880: x439 + x880 >= 1
 c1759_neq439_880: - x439 - x880 >= -1
 c1760_neq440_881: x440 + x881 >= 1
 c1761_neq440_881: - x440 - x881 >= -1
 c1762_neq440_882: x440 + x882 >= 1
 c1763_neq440_882: - x440 - x882 >= -1
 c1764_neq441_883: x441 + x883 >= 1
 c1765_neq441_883: - x441 - x883 >= -1
 c1766_neq441_884: x441 + x884 >= 1
 c1767_neq441_884: - x441 - x884 >= -1
 c1768_neq442_885: x442 + x885 >= 1
 c1769_neq442_885: - x442 - x885 >= -1
 c1770_neq442_886: x442 + x886 >= 1
 c1771_neq442_886: - x442 - x886 >= -1
 c1772_neq443_887: x443 + x887 >= 1
 c1773_neq443_887: - x443 - x887 >= -1
 c1774_neq443_888: x443 + x888 >= 1
 c1775_neq443_888: - x443 - x888 >= -1
 c1776_neq444_889: x444 + x889 >= 1
 c1777_neq444_889: - x444 - x889 >= -1
 c1778_neq444_890: x444 + x890 >= 1
 c1779_neq444_890: - x444 - x890 >= -1
 c1780_neq445_891: x445 + x891 >= 1
 c1781_neq445_891: - x445 - x891 >= -1
 c1782_neq445_892: x445 + x892 >= 1
 c1783_neq445_892: - x445 - x892 >= -1
 c1784_neq446_893: x446 + x893 >= 1
 c1785_neq446_893: - x446 - x893 >= -1
 c1786_neq446_894: x446 + x894 >= 1
 c1787_neq446_894: - x446 - x894 >= -1
 c1788_neq447_895: x447 + x895 >= 1
 c1789_neq447_895: - x447 - x895 >= -1
 c1790_neq447_896: x447 + x896 >= 1
 c1791_neq447_896: - x447 - x896 >= -1
 c1792_neq448_897: x448 + x897 >= 1
 c1793_neq448_897: - x448 - x897 >= -1
 c1794_neq448_898: x448 + x898 >= 1
 c1795_neq448_898: - x448 - x898 >= -1
 c1796_neq449_899: x449 + x899 >= 1
 c1797_neq449_899: - x449 - x899 >= -1
 c1798_neq449_900: x449 + x900 >= 1
 c1799_neq449_900: - x449 - x900 >= -1
 c1800_neq450_901: x450 + x901 >= 1
 c1801_neq450_901: - x450 - x901 >= -1
 c1802_neq450_902: x450 + x902 >= 1
 c1803_neq450_902: - x450 - x902 >= -1
 c1804_neq451_903: x451 + x903 >= 1
 c1805_neq451_903: - x451 - x903 >= -1
 c1806_neq451_904: x451 + x904 >= 1
 c1807_neq451_904: - x451 - x904 >= -1
 c1808_neq452_905: x452 + x905 >= 1
 c1809_neq452_905: - x452 - x905 >= -1
 c1810_neq452_906: x452 + x906 >= 1
 c1811_neq452_906: - x452 - x906 >= -1
 c1812_neq453_907: x453 + x907 >= 1
 c1813_neq453_907: - x453 - x907 >= -1
 c1814_neq453_908: x453 + x908 >= 1
 c1815_neq453_908: - x453 - x908 >= -1
 c1816_neq454_909: x454 + x909 >= 1
 c1817_neq454_909: - x454 - x909 >= -1
 c1818_neq454_910: x454 + x910 >= 1
 c1819_neq454_910: - x454 - x910 >= -1
 c1820_neq455_911: x455 + x911 >= 1
 c1821_neq455_911: - x455 - x911 >= -1
 c1822_neq455_912: x455 + x912 >= 1
 c1823_neq455_912: - x455 - x912 >= -1
 c1824_neq456_913: x456 + x913 >= 1
 c1825_neq456_913: - x456 - x913 >= -1
 c1826_neq456_914: x456 + x914 >= 1
 c1827_neq456_914: - x456 - x914 >= -1
 c1828_neq457_915: x457 + x915 >= 1
 c1829_neq457_915: - x457 - x915 >= -1
 c1830_neq457_916: x457 + x916 >= 1
 c1831_neq457_916: - x457 - x916 >= -1
 c1832_neq458_917: x458 + x917 >= 1
 c1833_neq458_917: - x458 - x917 >= -1
 c1834_neq458_918: x458 + x918 >= 1
 c1835_neq458_918: - x458 - x918 >= -1
 c1836_neq459_919: x459 + x919 >= 1
 c1837_neq459_919: - x459 - x919 >= -1
 c1838_neq459_920: x459 + x920 >= 1
 c1839_neq459_920: - x459 - x920 >= -1
 c1840_neq460_921: x460 + x921 >= 1
 c1841_neq460_921: - x460 - x921 >= -1
 c1842_neq460_922: x460 + x922 >= 1
 c1843_neq460_922: - x460 - x922 >= -1
 c1844_neq461_923: x461 + x923 >= 1
 c1845_neq461_923: - x461 - x923 >= -1
 c1846_neq461_924: x461 + x924 >= 1
 c1847_neq461_924: - x461 - x924 >= -1
 c1848_neq462_925: x462 + x925 >= 1
 c1849_neq462_925: - x462 - x925 >= -1
 c1850_neq462_926: x462 + x926 >= 1
 c1851_neq462_926: - x462 - x926 >= -1
 c1852_neq463_927: x463 + x927 >= 1
 c1853_neq463_927: - x463 - x927 >= -1
 c1854_neq463_928: x463 + x928 >= 1
 c1855_neq463_928: - x463 - x928 >= -1
 c1856_neq464_929: x464 + x929 >= 1
 c1857_neq464_929: - x464 - x929 >= -1
 c1858_neq464_930: x464 + x930 >= 1
 c1859_neq464_930: - x464 - x930 >= -1
 c1860_neq465_931: x465 + x931 >= 1
 c1861_neq465_931: - x465 - x931 >= -1
 c1862_neq465_932: x465 + x932 >= 1
 c1863_neq465_932: - x465 - x932 >= -1
 c1864_neq466_933: x466 + x933 >= 1
 c1865_neq466_933: - x466 - x933 >= -1
 c1866_neq466_934: x466 + x934 >= 1
 c1867_neq466_934: - x466 - x934 >= -1
 c1868_neq467_935: x467 + x935 >= 1
 c1869_neq467_935: - x467 - x935 >= -1
 c1870_neq467_936: x467 + x936 >= 1
 c1871_neq467_936: - x467 - x936 >= -1
 c1872_neq468_937: x468 + x937 >= 1
 c1873_neq468_937: - x468 - x937 >= -1
 c1874_neq468_938: x468 + x938 >= 1
 c1875_neq468_938: - x468 - x938 >= -1
 c1876_neq469_939: x469 + x939 >= 1
 c1877_neq469_939: - x469 - x939 >= -1
 c1878_neq469_940: x469 + x940 >= 1
 c1879_neq469_940: - x469 - x940 >= -1
 c1880_neq470_941: x470 + x941 >= 1
 c1881_neq470_941: - x470 - x941 >= -1
 c1882_neq470_942: x470 + x942 >= 1
 c1883_neq470_942: - x470 - x942 >= -1
 c1884_neq471_943: x471 + x943 >= 1
 c1885_neq471_943: - x471 - x943 >= -1
 c1886_neq471_944: x471 + x944 >= 1
 c1887_neq471_944: - x471 - x944 >= -1
 c1888_neq472_945: x472 + x945 >= 1
 c1889_neq472_945: - x472 - x945 >= -1
 c1890_neq472_946: x472 + x946 >= 1
 c1891_neq472_946: - x472 - x946 >= -1
 c1892_neq473_947: x473 + x947 >= 1
 c1893_neq473_947: - x473 - x947 >= -1
 c1894_neq473_948: x473 + x948 >= 1
 c1895_neq473_948: - x473 - x948 >= -1
 c1896_neq474_949: x474 + x949 >= 1
 c1897_neq474_949: - x474 - x949 >= -1
 c1898_neq474_950: x474 + x950 >= 1
 c1899_neq474_950: - x474 - x950 >= -1
 c1900_neq475_951: x475 + x951 >= 1
 c1901_neq475_951: - x475 - x951 >= -1
 c1902_neq475_952: x475 + x952 >= 1
 c1903_neq475_952: - x475 - x952 >= -1
 c1904_neq476_953: x476 + x953 >= 1
 c1905_neq476_953: - x476 - x953 >= -1
 c1906_neq476_954: x476 + x954 >= 1
 c1907_neq476_954: - x476 - x954 >= -1
 c1908_neq477_955: x477 + x955 >= 1
 c1909_neq477_955: - x477 - x955 >= -1
 c1910_neq477_956: x477 + x956 >= 1
 c1911_neq477_956: - x477 - x956 >= -1
 c1912_neq478_957: x478 + x957 >= 1
 c1913_neq478_957: - x478 - x957 >= -1
 c1914_neq478_958: x478 + x958 >= 1
 c1915_neq478_958: - x478 - x958 >= -1
 c1916_neq479_959: x479 + x959 >= 1
 c1917_neq479_959: - x479 - x959 >= -1
 c1918_neq479_960: x479 + x960 >= 1
 c1919_neq479_960: - x479 - x960 >= -1
 c1920_neq480_961: x480 + x961 >= 1
 c1921_neq480_961: - x480 - x961 >= -1
 c1922_neq480_962: x480 + x962 >= 1
 c1923_neq480_962: - x480 - x962 >= -1
 c1924_neq481_963: x481 + x963 >= 1
 c1925_neq481_963: - x481 - x963 >= -1
 c1926_neq481_964: x481 + x964 >= 1
 c1927_neq481_964: - x481 - x964 >= -1
 c1928_neq482_965: x482 + x965 >= 1
 c1929_neq482_965: - x482 - x965 >= -1
 c1930_neq482_966: x482 + x966 >= 1
 c1931_neq482_966: - x482 - x966 >= -1
 c1932_neq483_967: x483 + x967 >= 1
 c1933_neq483_967: - x483 - x967 >= -1
 c1934_neq483_968: x483 + x968 >= 1
 c1935_neq483_968: - x483 - x968 >= -1
 c1936_neq484_969: x484 + x969 >= 1
 c1937_neq484_969: - x484 - x969 >= -1
 c1938_neq484_970: x484 + x970 >= 1
 c1939_neq484_970: - x484 - x970 >= -1
 c1940_neq485_971: x485 + x971 >= 1
 c1941_neq485_971: - x485 - x971 >= -1
 c1942_neq485_972: x485 + x972 >= 1
 c1943_neq485_972: - x485 - x972 >= -1
 c1944_neq486_973: x486 + x973 >= 1
 c1945_neq486_973: - x486 - x973 >= -1
 c1946_neq486_974: x486 + x974 >= 1
 c1947_neq486_974: - x486 - x974 >= -1
 c1948_neq487_975: x487 + x975 >= 1
 c1949_neq487_975: - x487 - x975 >= -1
 c1950_neq487_976: x487 + x976 >= 1
 c1951_neq487_976: - x487 - x976 >= -1
 c1952_neq488_977: x488 + x977 >= 1
 c1953_neq488_977: - x488 - x977 >= -1
 c1954_neq488_978: x488 + x978 >= 1
 c1955_neq488_978: - x488 - x978 >= -1
 c1956_neq489_979: x489 + x979 >= 1
 c1957_neq489_979: - x489 - x979 >= -1
 c1958_neq489_980: x489 + x980 >= 1
 c1959_neq489_980: - x489 - x980 >= -1
 c1960_neq490_981: x490 + x981 >= 1
 c1961_neq490_981: - x490 - x981 >= -1
 c1962_neq490_982: x490 + x982 >= 1
 c1963_neq490_982: - x490 - x982 >= -1
 c1964_neq491_983: x491 + x983 >= 1
 c1965_neq491_983: - x491 - x983 >= -1
 c1966_neq491_984: x491 + x984 >= 1
 c1967_neq491_984: - x491 - x984 >= -1
 c1968_neq492_985: x492 + x985 >= 1
 c1969_neq492_985: - x492 - x985 >= -1
 c1970_neq492_986: x492 + x986 >= 1
 c1971_neq492_986: - x492 - x986 >= -1
 c1972_neq493_987: x493 + x987 >= 1
 c1973_neq493_987: - x493 - x987 >= -1
 c1974_neq493_988: x493 + x988 >= 1
 c1975_neq493_988: - x493 - x988 >= -1
 c1976_neq494_989: x494 + x989 >= 1
 c1977_neq494_989: - x494 - x989 >= -1
 c1978_neq494_990: x494 + x990 >= 1
 c1979_neq494_990: - x494 - x990 >= -1
 c1980_neq495_991: x495 + x991 >= 1
 c1981_neq495_991: - x495 - x991 >= -1
 c1982_neq495_992: x495 + x992 >= 1
 c1983_neq495_992: - x495 - x992 >= -1
 c1984_neq496_993: x496 + x993 >= 1
 c1985_neq496_993: - x496 - x993 >= -1
 c1986_neq496_994: x496 + x994 >= 1
 c1987_neq496_994: - x496 - x994 >= -1
 c1988_neq497_995: x497 + x995 >= 1
 c1989_neq497_995: - x497 - x995 >= -1
 c1990_neq497_996: x497 + x996 >= 1
 c1991_neq497_996: - x497 - x996 >= -1
 c1992_neq498_997: x498 + x997 >= 1
 c1993_neq498_997: - x498 - x997 >= -1
 c1994_neq498_998: x498 + x998 >= 1
 c1995_neq498_998: - x498 - x998 >= -1
 c1996_neq499_999: x499 + x999 >= 1
 c1997_neq499_999: - x499 - x999 >= -1
 c1998_neq499_1000: x499 + x1000 >= 1
 c1999_neq499_1000: - x499 - x1000 >= -1
 c2000_neq500_1001: x500 + x1001 >= 1
 c2001_neq500_1001: - x500 - x1001 >= -1
 c2002_neq500_1002: x500 + x1002 >= 1
 c2003_neq500_1002: - x500 - x1002 >= -1
 c2004_neq501_1003: x501 + x1003 >= 1
 c2005_neq501_1003: - x501 - x1003 >= -1
 c2006_neq501_1004: x501 + x1004 >= 1
 c2007_neq501_1004: - x501 - x1004 >= -1
 c2008_neq502_1005: x502 + x1005 >= 1
 c2009_neq502_1005: - x502 - x1005 >= -1
 c2010_neq502_1006: x502 + x1006 >= 1
 c2011_neq502_1006: - x502 - x1006 >= -1
 c2012_neq503_1007: x503 + x1007 >= 1
 c2013_neq503_1007: - x503 - x1007 >= -1
 c2014_neq503_1008: x503 + x1008 >= 1
 c2015_neq503_1008: - x503 - x1008 >= -1
 c2016_neq504_1009: x504 + x1009 >= 1
 c2017_neq504_1009: - x504 - x1009 >= -1
 c2018_neq504_1010: x504 + x1010 >= 1
 c2019_neq504_1010: - x504 - x1010 >= -1
 c2020_neq505_1011: x505 + x1011 >= 1
 c2021_neq505_1011: - x505 - x1011 >= -1
 c2022_neq505_1012: x505 + x1012 >= 1
 c2023_neq505_1012: - x505 - x1012 >= -1
 c2024_neq506_1013: x506 + x1013 >= 1
 c2025_neq506_1013: - x506 - x1013 >= -1
 c2026_neq506_1014: x506 + x1014 >= 1
 c2027_neq506_1014: - x506 - x1014 >= -1
 c2028_neq507_1015: x507 + x1015 >= 1
 c2029_neq507_1015: - x507 - x1015 >= -1
 c2030_neq507_1016: x507 + x1016 >= 1
 c2031_neq507_1016: - x507 - x1016 >= -1
 c2032_neq508_1017: x508 + x1017 >= 1
 c2033_neq508_1017: - x508 - x1017 >= -1
 c2034_neq508_1018: x508 + x1018 >= 1
 c2035_neq508_1018: - x508 - x1018 >= -1
 c2036_neq509_1019: x509 + x1019 >= 1
 c2037_neq509_1019: - x509 - x1019 >= -1
 c2038_neq509_1020: x509 + x1020 >= 1
 c2039_neq509_1020: - x509 - x1020 >= -1
 c2040_neq510_1021: x510 + x1021 >= 1
 c2041_neq510_1021: - x510 - x1021 >= -1
 c2042_neq510_1022: x510 + x1022 >= 1
 c2043_neq510_1022: - x510 - x1022 >= -1
Binary
 x0
 x1
 x2
 x3
 x4
 x5
 x6
 x7
 x8
 x9
 x10
 x11
 x12
 x13
 x14
 x15
 x16
 x17
 x18
 x19
 x20
 x21
 x22
 x23
 x24
 x25
 x26
 x27
 x28
 x29
 x30
 x31
 x32
 x33
 x34
 x35
 x36
 x37
 x38
 x39
 x40
 x41
 x42
 x43
 x44
 x45
 x46
 x47
 x48
 x49
 x50
 x51
 x52
 x53
 x54
 x55
 x56
 x57
 x58
 x59
 x60
 x61
 x62
 x63
 x64
 x65
 x66
 x67
 x68
 x69
 x70
 x71
 x72
 x73
 x74
 x75
 x76
 x77
 x78
 x79
 x80
 x81
 x82
 x83
 x84
 x85
 x86
 x87
 x88
 x89
 x90
 x91
 x92
 x93
 x94
 x95
 x96
 x97
 x98
 x99
 x100
 x101
 x102
 x103
 x104
 x105
 x106
 x107
 x108
 x109
 x110
 x111
 x112
 x113
 x114
 x115
 x116
 x117
 x118
 x119
 x120
 x121
 x122
 x123
 x124
 x125
 x126
 x127
 x128
 x129
 x130
 x131
 x132
 x133
 x134
 x135
 x136
 x137
 x138
 x139
 x140
 x141
 x142
 x143
 x144
 x145
 x146
 x147
 x148
 x149
 x150
 x151
 x152
 x153
 x154
 x155
 x156
 x157
 x158
 x159
 x160
 x161
 x162
 x163
 x164
 x165
 x166
 x167
 x168
 x169
 x170
 x171
 x172
 x173
 x174
 x175
 x176
 x177
 x178
 x179
 x180
 x181
 x182
 x183
 x184
 x185
 x186
 x187
 x188
 x189
 x190
 x191
 x192
 x193
 x194
 x195
 x196
 x197
 x198
 x199
 x200
 x201
 x202
 x203
 x204
 x205
 x206
 x207
 x208
 x209
 x210
 x211
 x212
 x213
 x214
 x215
 x216
 x217
 x218
 x219
 x220
 x221
 x222
 x223
 x224
 x225
 x226
 x227
 x228
 x229
 x230
 x231
 x232
 x233
 x234
 x235
 x236
 x237
 x238
 x239
 x240
 x241
 x242
 x243
 x244
 x245
 x246
 x247
 x248
 x249
 x250
 x251
 x252
 x253
 x254
 x255
 x256
 x257
 x258
 x259
 x260
 x261
 x262
 x263
 x264
 x265
 x266
 x267
 x268
 x269
 x270
 x271
 x272
 x273
 x274
 x275
 x276
 x277
 x278
 x279
 x280
 x281
 x282
 x283
 x284
 x285
 x286
 x287
 x288
 x289
 x290
 x291
 x292
 x293
 x294
 x295
 x296
 x297
 x298
 x299
 x300
 x301
 x302
 x303
 x304
 x305
 x306
 x307
 x308
 x309
 x310
 x311
 x312
 x313
 x314
 x315
 x316
 x317
 x318
 x319
 x320
 x321
 x322
 x323
 x324
 x325
 x326
 x327
 x328
 x329
 x330
 x331
 x332
 x333
 x334
 x335
 x336
 x337
 x338
 x339
 x340
 x341
 x342
 x343
 x344
 x345
 x346
 x347
 x348
 x349
 x350
 x351
 x352
 x353
 x354
 x355
 x356
 x357
 x358
 x359
 x360
 x361
 x362
 x363
 x364
 x365
 x366
 x367
 x368
 x369
 x370
 x371
 x372
 x373
 x374
 x375
 x376
 x377
 x378
 x379
 x380
 x381
 x382
 x383
 x384
 x385
 x386
 x387
 x388
 x389
 x390
 x391
 x392
 x393
 x394
 x395
 x396
 x397
 x398
 x399
 x400
 x401
 x402
 x403
 x404
 x405
 x406
 x407
 x408
 x409
 x410
 x411
 x412
 x413
 x414
 x415
 x416
 x417
 x418
 x419
 x420
 x421
 x422
 x423
 x424
 x425
 x426
 x427
 x428
 x429
 x430
 x431
 x432
 x433
 x434
 x435
 x436
 x437
 x438
 x439
 x440
 x441
 x442
 x443
 x444
 x445
 x446
 x447
 x448
 x449
 x450
 x451
 x452
 x453
 x454
 x455
 x456
 x457
 x458
 x459
 x460
 x461
 x462
 x463
 x464
 x465
 x466
 x467
 x468
 x469
 x470
 x471
 x472
 x473
 x474
 x475
 x476
 x477
 x478
 x479
 x480
 x481
 x482
 x483
 x484
 x485
 x486
 x487
 x488
 x489
 x490
 x491
 x492
 x493
 x494
 x495
 x496
 x497
 x498
 x499
 x500
 x501
 x502
 x503
 x504
 x505
 x506
 x507
 x508
 x509
 x510
 x511
 x512
 x513
 x514
 x515
 x516
 x517
 x518
 x519
 x520
 x521
 x522
 x523
 x524
 x525
 x526
 x527
 x528
 x529
 x530
 x531
 x532
 x533
 x534
 x535
 x536
 x537
 x538
 x539
 x540
 x541
 x542
 x543
 x544
 x545
 x546
 x547
 x548
 x549
 x550
 x551
 x552
 x553
 x554
 x555
 x556
 x557
 x558
 x559
 x560
 x561
 x562
 x563
 x564
 x565
 x566
 x567
 x568
 x569
 x570
 x571
 x572
 x573
 x574
 x575
 x576
 x577
 x578
 x579
 x580
 x581
 x582
 x583
 x584
 x585
 x586
 x587
 x588
 x589
 x590
 x591
 x592
 x593
 x594
 x595
 x596
 x597
 x598
 x599
 x600
 x601
 x602
 x603
 x604
 x605
 x606
 x607
 x608
 x609
 x610
 x611
 x612
 x613
 x614
 x615
 x616
 x617
 x618
 x619
 x620
 x621
 x622
 x623
 x624
 x625
 x626
 x627
 x628
 x629
 x630
 x631
 x632
 x633
 x634
 x635
 x636
 x637
 x638
 x639
 x640
 x641
 x642
 x643
 x644
 x645
 x646
 x647
 x648
 x649
 x650
 x651
 x652
 x653
 x654
 x655
 x656
 x657
 x658
 x659
 x660
 x661
 x662
 x663
 x664
 x665
 x666
 x667
 x668
 x669
 x670
 x671
 x672
 x673
 x674
 x675
 x676
 x677
 x678
 x679
 x680
 x681
 x682
 x683
 x684
 x685
 x686
 x687
 x688
 x689
 x690
 x691
 x692
 x693
 x694
 x695
 x696
 x697
 x698
 x699
 x700
 x701
 x702
 x703
 x704
 x705
 x706
 x707
 x708
 x709
 x710
 x711
 x712
 x713
 x714
 x715
 x716
 x717
 x718
 x719
 x720
 x721
 x722
 x723
 x724
 x725
 x726
 x727
 x728
 x729
 x730
 x731
 x732
 x733
 x734
 x735
 x736
 x737
 x738
 x739
 x740
 x741
 x742
 x743
 x744
 x745
 x746
 x747
 x748
 x749
 x750
 x751
 x752
 x753
 x754
 x755
 x756
 x757
 x758
 x759
 x760
 x761
 x762
 x763
 x764
 x765
 x766
 x767
 x768
 x769
 x770
 x771
 x772
 x773
 x774
 x775
 x776
 x777
 x778
 x779
 x780
 x781
 x782
 x783
 x784
 x785
 x786
 x787
 x788
 x789
 x790
 x791
 x792
 x793
 x794
 x795
 x796
 x797
 x798
 x799
 x800
 x801
 x802
 x803
 x804
 x805
 x806
 x807
 x808
 x809
 x810
 x811
 x812
 x813
 x814
 x815
 x816
 x817
 x818
 x819
 x820
 x821
 x822
 x823
 x824
 x825
 x826
 x827
 x828
 x829
 x830
 x831
 x832
 x833
 x834
 x835
 x836
 x837
 x838
 x839
 x840
 x841
 x842
 x843
 x844
 x845
 x846
 x847
 x848
 x849
 x850
 x851
 x852
 x853
 x854
 x855
 x856
 x857
 x858
 x859
 x860
 x861
 x862
 x863
 x864
 x865
 x866
 x867
 x868
 x869
 x870
 x871
 x872
 x873
 x874
 x875
 x876
 x877
 x878
 x879
 x880
 x881
 x882
 x883
 x884
 x885
 x886
 x887
 x888
 x889
 x890
 x891
 x892
 x893
 x894
 x895
 x896
 x897
 x898
 x899
 x900
 x901
 x902
 x903
 x904
 x905
 x906
 x907
 x908
 x909
 x910
 x911
 x912
 x913
 x914
 x915
 x916
 x917
 x918
 x919
 x920
 x921
 x922
 x923
 x924
 x925
 x926
 x927
 x928
 x929
 x930
 x931
 x932
 x933
 x934
 x935
 x936
 x937
 x938
 x939
 x940
 x941
 x942
 x943
 x944
 x945
 x946
 x947
 x948
 x949
 x950
 x951
 x952
 x953
 x954
 x955
 x956
 x957
 x958
 x959
 x960
 x961
 x962
 x963
 x964
 x965
 x966
 x967
 x968
 x969
 x970
 x971
 x972
 x973
 x974
 x975
 x976
 x977
 x978
 x979
 x980
 x981
 x982
 x983
 x984
 x985
 x986
 x987
 x988
 x989
 x990
 x991
 x992
 x993
 x994
 x995
 x996
 x997
 x998
 x999
 x1000
 x1001
 x1002
 x1003
 x1004
 x1005
 x1006
 x1007
 x1008
 x1009
 x1010
 x1011
 x1012
 x1013
 x1014
 x1015
 x1016
 x1017
 x1018
 x1019
 x1020
 x1021
 x1022
End
